%chk=B-OOO6.chk
%mem=600MW
# td=(nstates=10) b3lyp/lanl2dz 

B-OOO6

0 1
 C                -15.00781700   -1.73051700    0.09661200
 C                -15.78948200   -0.51416400    0.08876800
 C                -17.25049500   -0.54970600    0.05080200
 C                -17.97099400   -1.80281400    0.02218900
 C                -17.16998000   -2.95625100    0.03327800
 C                -15.75118100   -2.92178700    0.06712200
 C                -13.57209300   -1.75878800    0.13604000
 N                -15.36653100    0.76530400    0.11271600
 N                -17.73564900    0.70782100    0.04705200
 H                -17.65938200   -3.92432400    0.01398700
 H                -15.21472900   -3.86472700    0.07041200
 C                -12.65495400   -2.80412200    0.21666800
 C                -11.33834700   -2.25308700    0.21780000
 C                -11.46592200   -0.87003100    0.14012100
 C                -21.55020400   -1.11565600   -0.02036800
 C                -21.61061400   -2.50102700   -0.12551000
 C                -20.26861500   -2.98798900   -0.12797300
 C                -19.40388000   -1.90118600   -0.02216800
 C                 -4.03229900    1.15652600    0.17779200
 C                 -4.74837800   -0.09922000    0.14924400
 C                 -6.20962500   -0.14027100    0.12401000
 C                 -6.99594500    1.07294700    0.12894500
 C                 -6.25677500    2.26692600    0.15873000
 C                 -4.83814500    2.30689700    0.18031500
 C                 -2.59979400    1.26134500    0.20778500
 N                 -4.25840600   -1.35478300    0.14197000
 N                 -6.62778700   -1.42125300    0.09700700
 H                 -6.79682400    3.20777300    0.16494000
 H                 -4.35253700    3.27681700    0.20019000
 C                 -1.73977100    2.35257500    0.30870500
 C                 -0.39548300    1.87367100    0.28815900
 C                 -0.44875700    0.48823500    0.17650600
 C                -10.53645400    0.20464200    0.10463100
 C                -10.66700100    1.58772700    0.03264400
 C                 -9.35154700    2.14114200    0.02806200
 C                 -8.43200800    1.09724300    0.09973900
 C                  7.08630700   -1.10324300    0.08984600
 C                  6.29724100    0.10801300    0.09911600
 C                  4.83598300    0.06313600    0.09240900
 C                  4.12266800   -1.19462200    0.07867600
 C                  4.93130200   -2.34309400    0.07304500
 C                  6.35002400   -2.29922700    0.07655300
 C                  8.52288600   -1.12336700    0.09741600
 N                  6.71242000    1.39020500    0.11459000
 N                  4.34285800    1.31743500    0.09959800
 H                  4.44794400   -3.31429300    0.06423500
 H                  6.89250900   -3.23869600    0.06823600
 C                  9.44699300   -2.16386600    0.15857000
 C                 10.76032900   -1.60599100    0.12874200
 C                 10.62375300   -0.22371100    0.05179700
 C                  0.53864900   -0.53155900    0.10765100
 C                  0.48620000   -1.91764100    0.00306500
 C                  1.83088000   -2.39497500   -0.02561800
 C                  2.69037200   -1.30220400    0.06351400
 C                 18.04607700    1.82602300   -0.12412400
 C                 17.33334300    0.56843900   -0.12446700
 C                 15.87233300    0.52395300   -0.10547100
 C                 15.08299200    1.73545400   -0.08389300
 C                 15.81952400    2.93168200   -0.08138800
 C                 17.23796300    2.97455200   -0.10012700
 C                 19.47864500    1.93486200   -0.14805500
 N                 17.82592000   -0.68607200   -0.14381800
 N                 15.45661000   -0.75794400   -0.11571400
 H                 15.27752900    3.87116700   -0.06166700
 H                 17.72176000    3.94559400   -0.09331900
 C                 20.33712100    3.03216700   -0.17399100
 C                 21.68156300    2.55455500   -0.18335800
 C                 21.62968700    1.16403400   -0.16984300
 C                 11.54722100    0.85481700   -0.00811400
 C                 11.40951500    2.23760400   -0.07777200
 C                 12.72208900    2.79567800   -0.11908200
 C                 13.64733600    1.75500500   -0.07148800
 C                -26.11056700    0.60072800   -0.04591700
 C                -26.83063700   -0.65273700   -0.09316600
 C                -28.29027900   -0.68792300   -0.15195100
 C                -29.07007200    0.52726300   -0.16303200
 C                -28.33144700    1.71646400   -0.11129000
 C                -26.91033700    1.75305400   -0.05727500
 C                -24.67769600    0.69787000    0.01543200
 N                -26.34591600   -1.91032100   -0.08874300
 N                -28.71268200   -1.96853200   -0.18669400
 H                -28.86871400    2.65920800   -0.11418900
 H                -26.42253000    2.72143600   -0.02344400
 C                -23.81408800    1.78319300    0.13768600
 C                -22.47217000    1.29583900    0.14523900
 C                -22.53199200   -0.08872200    0.02911000
 C                -32.60521200   -0.34642500   -0.27812500
 C                -32.74890700    1.01890700   -0.32609600
 C                -31.43021500    1.59070200   -0.29667600
 C                -30.51190100    0.55234000   -0.22648900
 H                -33.29291300   -1.17398700   -0.28266100
 O                 22.79020800    3.38291500   -0.22128300
 O                 20.00594200    4.38422900   -0.19187500
 O                 12.97013600    4.16303600   -0.19702000
 O                 10.25100500    2.99737000   -0.11794000
 O                 11.91796900   -2.36556700    0.18561400
 O                  9.19819000   -3.53156500    0.23878500
 O                  2.16181400   -3.74318600   -0.12992200
 O                 -0.62352700   -2.74399100   -0.07810500
 O                  0.71443800    2.69823700    0.38285700
 O                 -2.06981300    3.70093400    0.41617200
 O                 -9.09684600    3.50833000   -0.04138200
 O                -11.82122600    2.35174000   -0.03905000
 O                -10.18614600   -3.01920300    0.29961200
 O                -12.91282300   -4.17039900    0.28883300
 O                -19.94548700   -4.33857200   -0.22541400
 O                -22.72406100   -3.31916400   -0.22740900
 O                -21.35977000    2.11403000    0.26604800
 O                -24.13838400    3.13285900    0.24054400
 O                -31.19058200    2.96390600   -0.32942500
 O                -33.91391200    1.78086500   -0.40596900
 C                 22.43995900    4.77188900    0.14640300
 C                 21.16626500    5.22514600   -0.57996100
 C                 11.75151900    4.91800700   -0.58299800
 C                 10.52684200    4.41544600    0.19374900
 C                 11.64578400   -3.78575600   -0.12040600
 C                 10.41179300   -4.28343800    0.64467600
 C                  0.99844100   -4.55910400   -0.55923100
 C                 -0.26891500   -4.15055700    0.20419700
 C                  0.36401200    4.10638900    0.10313700
 C                 -0.90894000    4.51351000    0.85798300
 C                -10.30105200    4.26634200   -0.46351000
 C                -11.54904900    3.76909500    0.27877100
 C                -10.45918200   -4.43666400   -0.01730100
 C                -11.71237000   -4.93015700    0.71874500
 C                -21.10618400   -5.14611300   -0.67799300
 C                -22.38539300   -4.72902600    0.06042900
 C                -21.69585400    3.52363000   -0.02302100
 C                -22.98160400    3.93936000    0.70491400
 C                -32.39526200    3.71392500   -0.75662100
 C                -33.65103800    3.19033500   -0.04525600
 H                 23.30041300    5.37348700   -0.15441800
 H                 20.89099300    6.24395600   -0.29768200
 H                 21.29563000    5.15664600   -1.66758900
 H                 22.30765100    4.82691200    1.23484600
 H                 10.68539900    4.51695400    1.27552800
 H                  9.62441100    4.95484300   -0.10217700
 H                 11.97146700    5.96128400   -0.34481500
 H                 11.59913300    4.80127900   -1.66347100
 H                 11.50023900   -3.89371300   -1.20335100
 H                 10.19529400   -5.32839800    0.41067200
 H                 10.55125500   -4.15982300    1.72618400
 H                 12.54471800   -4.32315100    0.18948800
 H                 -1.13149400   -4.73500800   -0.12342800
 H                  0.85969700   -4.42413000   -1.63945500
 H                 -0.12535200   -4.27042600    1.28621200
 H                  1.27604400   -5.59324100   -0.34224900
 H                  0.22934300    4.23049600   -0.97952200
 H                  1.22471100    4.68842600    0.43986500
 H                 -1.18343100    5.54889300    0.64293200
 H                 -0.77893600    4.37414800    1.93875800
 H                -10.08484100    5.30941600   -0.22092700
 H                -11.42055000    3.87123200    1.36449100
 H                -12.44090900    4.31137300   -0.04289800
 H                -10.42317500    4.14833600   -1.54773900
 H                -20.83898900    4.10121100    0.33068700
 H                -22.87486900    3.80062400    1.78826600
 H                -21.80733500    3.64702400   -1.10841600
 H                -23.24571900    4.97597800    0.48294000
 H                -32.19700200    4.75492500   -0.49019600
 H                -32.49990600    3.61743300   -1.84510500
 H                -33.53580300    3.26521100    1.04443600
 H                -34.53778600    3.74329400   -0.36453300
 H                -11.92938400   -5.97316400    0.47662000
 H                -23.24567700   -5.30662400   -0.28476400
 H                -10.58149100   -4.54044200   -1.10356100
 H                -11.59614500   -4.81067500    1.80344900
 H                -21.22244700   -5.00997000   -1.76070400
 H                 -9.57029800   -4.98015300    0.31048000
 H                -20.84039900   -6.18224200   -0.45593600
 H                -22.26451400   -4.85040700    1.14497400
 C                 22.62072500    0.14725200   -0.17048400
 C                 22.57779700   -1.24434600   -0.21593900
 C                 23.92363400   -1.71447700   -0.18838300
 C                 24.77055900   -0.61054100   -0.12155500
 C                 21.83750900   -3.47252000    0.06525400
 C                 23.13096700   -3.90526900   -0.64002000
 C                 26.18866600   -0.51430100   -0.07305200
 C                 26.98888800    0.72243500   -0.00404400
 C                 28.47602100    0.71967100    0.04016300
 C                 29.27292200   -0.51682300    0.02048400
 C                 27.09927600   -1.56309600   -0.08382300
 C                 28.36331600   -1.56298800   -0.04524900
 C                 30.69917600   -0.61193200    0.05714000
 C                 31.55143100   -1.70673900    0.02317200
 C                 32.90055500   -1.21604400    0.08853700
 C                 32.83713700    0.15545200    0.15661700
 C                 32.40206600   -3.87688700   -0.41251700
 C                 33.64276600   -3.44523300    0.38312300
 O                 21.47769600   -2.08293400   -0.29344300
 O                 24.27474600   -3.05351200   -0.22398200
 O                 31.22347500   -3.05288400   -0.05121100
 O                 34.01756200   -2.04860700    0.06706700
 N                 26.54756800    1.99014600    0.03290500
 N                 28.91851800    1.98768800    0.10212100
 H                 33.57421700    0.93746000    0.21393300
 H                 21.94881200   -3.53829300    1.15551400
 H                 20.99027400   -4.08031000   -0.25963000
 H                 23.41414800   -4.92240100   -0.36003200
 H                 23.02272200   -3.82998100   -1.72938900
 H                 32.11863300   -4.90450200   -0.17330100
 H                 32.58031600   -3.77727500   -1.49105000
 H                 33.45719900   -3.52842500    1.46229700
 H                 34.51081800   -4.04865600    0.10700800
 O                 31.49265100    0.54774100    0.13735000
 O                 27.73162800    2.78567700    0.09858500
 O                 23.96851000    0.54677700   -0.11198600
 O                 20.27779200    0.77522800   -0.14743200
 O                 16.66473200   -1.51773600   -0.13896600
 O                 12.92001600    0.54976600   -0.00410300
 O                  9.25055600    0.08124600    0.03295200
 O                  5.50301500    2.14963200    0.11425900
 O                  1.89044000   -0.14494600    0.14503200
 O                 -1.80082500    0.10343200    0.12731700
 O                 -5.42061800   -2.18387500    0.10881700
 O                 -9.16500600   -0.10534300    0.14576600
 O                -12.83651200   -0.55783300    0.09027100
 O                -16.57040900    1.53249200    0.08627400
 O                -20.19670600   -0.73842100    0.04343500
 O                -23.88439700   -0.46485200   -0.05029100
 O                -27.50828500   -2.73455100   -0.14729600
 O                -31.24071800   -0.65207700   -0.21783000

 1 2 1.5 6 1.5 7 1.5
 2 3 1.0 8 1.5
 3 4 1.5 9 1.5
 4 5 1.5 18 1.5
 5 6 1.5 10 1.0
 6 11 1.0
 7 12 1.5 217 1.0
 8 218 1.0
 9 218 1.0
 10
 11
 12 13 1.5 105 1.0
 13 14 1.5 104 1.0
 14 33 1.5 217 1.0
 15 16 1.5 86 1.5 219 1.0
 16 17 1.5 107 1.0
 17 18 1.5 106 1.0
 18 219 1.0
 19 20 1.5 24 1.5 25 1.5
 20 21 1.0 26 1.5
 21 22 1.5 27 1.5
 22 23 1.5 36 1.5
 23 24 1.5 28 1.0
 24 29 1.0
 25 30 1.5 214 1.0
 26 215 1.0
 27 215 1.0
 28
 29
 30 31 1.5 101 1.0
 31 32 1.5 100 1.0
 32 51 1.5 214 1.0
 33 34 1.5 216 1.0
 34 35 1.5 103 1.0
 35 36 1.5 102 1.0
 36 216 1.0
 37 38 1.5 42 1.5 43 1.5
 38 39 1.0 44 1.5
 39 40 1.5 45 1.5
 40 41 1.5 54 1.5
 41 42 1.5 46 1.0
 42 47 1.0
 43 48 1.5 211 1.0
 44 212 1.0
 45 212 1.0
 46
 47
 48 49 1.5 97 1.0
 49 50 1.5 96 1.0
 50 69 1.5 211 1.0
 51 52 1.5 213 1.0
 52 53 1.5 99 1.0
 53 54 1.5 98 1.0
 54 213 1.0
 55 56 1.5 60 1.5 61 1.5
 56 57 1.0 62 1.5
 57 58 1.5 63 1.5
 58 59 1.5 72 1.5
 59 60 1.5 64 1.0
 60 65 1.0
 61 66 1.5 208 1.0
 62 209 1.0
 63 209 1.0
 64
 65
 66 67 1.5 93 1.0
 67 68 1.5 92 1.0
 68 172 1.5 208 1.0
 69 70 1.5 210 1.0
 70 71 1.5 95 1.0
 71 72 1.5 94 1.0
 72 210 1.0
 73 74 1.5 78 1.5 79 1.5
 74 75 1.0 80 1.5
 75 76 1.5 81 1.5
 76 77 1.5 90 1.5
 77 78 1.5 82 1.0
 78 83 1.0
 79 84 1.5 220 1.0
 80 221 1.0
 81 221 1.0
 82
 83
 84 85 1.5 109 1.0
 85 86 1.5 108 1.0
 86 220 1.0
 87 88 2.0 91 1.0 222 1.0
 88 89 1.5 111 1.0
 89 90 1.5 110 1.0
 90 222 1.0
 91
 92 112 1.0
 93 113 1.0
 94 114 1.0
 95 115 1.0
 96 116 1.0
 97 117 1.0
 98 118 1.0
 99 119 1.0
 100 120 1.0
 101 121 1.0
 102 122 1.0
 103 123 1.0
 104 124 1.0
 105 125 1.0
 106 126 1.0
 107 127 1.0
 108 128 1.0
 109 129 1.0
 110 130 1.0
 111 131 1.0
 112 113 1.0 132 1.0 135 1.0
 113 133 1.0 134 1.0
 114 115 1.0 138 1.0 139 1.0
 115 136 1.0 137 1.0
 116 117 1.0 140 1.0 143 1.0
 117 141 1.0 142 1.0
 118 119 1.0 145 1.0 147 1.0
 119 144 1.0 146 1.0
 120 121 1.0 148 1.0 149 1.0
 121 150 1.0 151 1.0
 122 123 1.0 152 1.0 155 1.0
 123 153 1.0 154 1.0
 124 125 1.0 166 1.0 169 1.0
 125 164 1.0 167 1.0
 126 127 1.0 168 1.0 170 1.0
 127 165 1.0 171 1.0
 128 129 1.0 156 1.0 158 1.0
 129 157 1.0 159 1.0
 130 131 1.0 160 1.0 161 1.0
 131 162 1.0 163 1.0
 132
 133
 134
 135
 136
 137
 138
 139
 140
 141
 142
 143
 144
 145
 146
 147
 148
 149
 150
 151
 152
 153
 154
 155
 156
 157
 158
 159
 160
 161
 162
 163
 164
 165
 166
 167
 168
 169
 170
 171
 172 173 1.5 207 1.0
 173 174 1.5 190 1.0
 174 175 1.5 191 1.0
 175 178 1.5 207 1.0
 176 177 1.0 190 1.0 197 1.0 198 1.0
 177 191 1.0 199 1.0 200 1.0
 178 179 1.0 182 1.5
 179 180 1.0 194 1.5
 180 181 1.0 195 1.5
 181 183 1.5 184 1.5
 182 183 2.0
 183
 184 185 1.5 205 1.0
 185 186 1.5 192 1.0
 186 187 2.0 193 1.0
 187 196 1.0 205 1.0
 188 189 1.0 192 1.0 201 1.0 202 1.0
 189 193 1.0 203 1.0 204 1.0
 190
 191
 192
 193
 194 206 1.0
 195 206 1.0
 196
 197
 198
 199
 200
 201
 202
 203
 204
 205
 206
 207
 208
 209
 210
 211
 212
 213
 214
 215
 216
 217
 218
 219
 220
 221
 222

