%chk=B-OSO6.chk
%mem=600MW
# td=(nstates=10) b3lyp/lanl2dz 

B-OSO6

0 1
 C                -15.17170500   -1.56152500    0.07626100
 C                -15.93385600   -0.32456800    0.08050700
 C                -17.42105900   -0.35303600   -0.00814400
 C                -18.12967900   -1.61864800   -0.08611800
 C                -17.33361000   -2.77327400   -0.08285600
 C                -15.91815600   -2.74604100   -0.00795500
 C                -13.73423800   -1.62288800    0.15721400
 N                -15.39344400    0.90511700    0.15849500
 N                -18.01283000    0.85546800   -0.00981100
 H                -17.82296900   -3.73949000   -0.14067200
 H                -15.38830600   -3.69231700   -0.01486000
 C                -12.86027400   -2.70354000    0.26881800
 C                -11.52217200   -2.20812900    0.30000900
 C                -11.59123300   -0.82213100    0.20776900
 C                -21.73945600   -1.02801900   -0.14932900
 C                -21.74907900   -2.40239200   -0.36041500
 C                -20.39031700   -2.83994000   -0.37339000
 C                -19.56383900   -1.73573200   -0.17120700
 C                 -4.07859600    1.02839300    0.40794700
 C                 -4.78300500   -0.23804000    0.30659900
 C                 -6.27123600   -0.27108300    0.23724900
 C                 -7.03828400    0.96175600    0.28345700
 C                 -6.29567600    2.14714400    0.38715900
 C                 -4.87973500    2.17915900    0.44414900
 C                 -2.64428800    1.15098700    0.47628800
 N                 -4.18604300   -1.44326000    0.26732700
 N                 -6.80725900   -1.50077700    0.13272500
 H                 -6.82934500    3.09054500    0.42456800
 H                 -4.39396600    3.14589000    0.51982900
 C                 -1.82168500    2.25544800    0.69356200
 C                 -0.46084200    1.82796600    0.64905100
 C                 -0.46440200    0.45907400    0.40320900
 C                -10.61900000    0.21657000    0.18792600
 C                -10.69122300    1.60337400    0.11132900
 C                 -9.35365100    2.10051700    0.13211000
 C                 -8.47688000    1.02016200    0.22144500
 C                  7.13556900   -0.97770200    0.19740700
 C                  6.36117100    0.25040300    0.24298100
 C                  4.87190700    0.20570900    0.22078700
 C                  4.17419300   -1.06751800    0.16633600
 C                  4.98243800   -2.21334000    0.12997500
 C                  6.39922100   -2.17020700    0.14226700
 C                  8.57599900   -1.02422100    0.21053400
 N                  6.89099800    1.48569100    0.30514200
 N                  4.26738700    1.40732200    0.25357900
 H                  4.50180100   -3.18471400    0.08879400
 H                  6.93871600   -3.11041400    0.10714900
 C                  9.46463000   -2.09593700    0.28568100
 C                 10.79774600   -1.58789800    0.24786500
 C                 10.71085000   -0.20328400    0.14921900
 C                  0.55821100   -0.51806400    0.24871700
 C                  0.55645700   -1.89122800    0.02759800
 C                  1.91832200   -2.31251600   -0.04037300
 C                  2.73964400   -1.20024200    0.13876600
 C                 18.20555200    1.69440500   -0.11632700
 C                 17.50397700    0.42361400   -0.16049200
 C                 16.01505900    0.38246000   -0.13494000
 C                 15.24490900    1.61279900   -0.06448300
 C                 15.98537600    2.80411400   -0.03793500
 C                 17.40201200    2.84272600   -0.06341000
 C                 19.64082200    1.82360500   -0.13831700
 N                 18.10393700   -0.77792900   -0.24430000
 N                 15.48054100   -0.85052700   -0.19890900
 H                 15.44956000    3.74563000    0.01254600
 H                 17.88650900    3.81264800   -0.03216600
 C                 20.46608900    2.94325800   -0.23844400
 C                 21.82581600    2.51255000   -0.20537900
 C                 21.81851900    1.12624900   -0.08704000
 C                 11.67164400    0.84291500    0.06867300
 C                 11.58437100    2.22881400   -0.01345100
 C                 12.91672900    2.73537300   -0.07809900
 C                 13.80567600    1.66174100   -0.03408600
 C                -26.36515100    0.55877200   -0.11132100
 C                -27.07668600   -0.70642800   -0.18377100
 C                -28.56278200   -0.73307000   -0.28020400
 C                -29.31941000    0.50510500   -0.29101000
 C                -28.57490700    1.68681800   -0.20686400
 C                -27.15721400    1.71408700   -0.12361800
 C                -24.93044300    0.67253500   -0.02149000
 N                -26.48746700   -1.91576100   -0.16632700
 N                -29.10435700   -1.96500100   -0.34614000
 H                -29.10402000    2.63391000   -0.20905100
 H                -26.66715900    2.68000400   -0.06868300
 C                -24.10349300    1.77500600    0.18475500
 C                -22.74516600    1.33578800    0.17530900
 C                -22.75606300   -0.03818800   -0.03860000
 C                -32.89377500   -0.23740500   -0.46026200
 C                -32.97753400    1.13088400   -0.53972400
 C                -31.63601200    1.64437400   -0.49616600
 C                -30.76254100    0.56880000   -0.38714900
 H                -33.61667100   -1.03442300   -0.46139500
 O                 22.90831000    3.37605700   -0.28768200
 O                 20.09243900    4.28120500   -0.35712900
 O                 13.21332300    4.09403900   -0.17291400
 O                 10.45429100    3.03470300   -0.04710300
 O                 11.92735900   -2.39150900    0.31983400
 O                  9.16772300   -3.45471600    0.38560400
 O                  2.29800400   -3.63632100   -0.25730700
 O                 -0.52210600   -2.75267300   -0.12318300
 O                  0.61795600    2.67997800    0.84438800
 O                 -2.19939800    3.57752100    0.92510000
 O                 -9.04259600    3.45821200    0.06649000
 O                -11.81148200    2.41789400    0.01469400
 O                -10.40473600   -3.02342400    0.42072800
 O                -13.17448000   -4.05977900    0.34475400
 O                -20.01839600   -4.16983100   -0.56525400
 O                -22.83066400   -3.25212600   -0.54799600
 O                -21.66320000    2.18448400    0.36857900
 O                -24.47458500    3.10476300    0.37720900
 O                -31.34029100    3.00763600   -0.55264600
 O                -34.10831500    1.93926100   -0.65973100
 C                 22.50382800    4.77520500   -0.03696600
 C                 21.22497200    5.12304200   -0.81037900
 C                 12.02184600    4.88786200   -0.55658700
 C                 10.79064500    4.44290200    0.24410000
 C                 11.60084300   -3.80356500    0.03541300
 C                 10.34983200   -4.24186500    0.80868700
 C                  1.16796700   -4.45240900   -0.76039700
 C                 -0.11006200   -4.16168900    0.03777800
 C                  0.21812200    4.09398400    0.69753600
 C                 -1.07760000    4.37842200    1.46907600
 C                -10.20205100    4.26171700   -0.38731700
 C                -11.48362600    3.82214300    0.33327000
 C                -10.73063700   -4.42958200    0.10860300
 C                -12.02135300   -4.86185400    0.81725200
 C                -21.13786400   -4.97717300   -1.10513700
 C                -22.44259600   -4.66493000   -0.36008600
 C                -22.04921700    3.59698600    0.17788300
 C                -23.35552100    3.91141300    0.91935300
 C                -32.50159200    3.79484800   -1.02671900
 C                -33.79294900    3.34460800   -0.32913400
 H                 23.34603200    5.38302600   -0.37549800
 H                 20.91443600    6.15305800   -0.61970400
 H                 21.36908300    4.96564200   -1.88702500
 H                 22.35191400    4.91366300    1.04180800
 H                 10.97121800    4.55150200    1.32196500
 H                  9.90656300    5.01605100   -0.04467500
 H                 12.28370100    5.92599500   -0.33845000
 H                 11.84916500    4.76036600   -1.63298300
 H                 11.44863000   -3.92374400   -1.04553300
 H                 10.09561300   -5.28288100    0.59518300
 H                 10.49453500   -4.10267200    1.88781600
 H                 12.47808900   -4.37188500    0.35312900
 H                 -0.94976000   -4.75212600   -0.33609100
 H                  1.01913400   -4.22596400   -1.82405000
 H                  0.04677300   -4.36785800    1.10506200
 H                  1.48456700   -5.49107100   -0.63850300
 H                  0.08904600    4.31914100   -0.36959000
 H                  1.05158400    4.67291100    1.10210500
 H                 -1.38560600    5.42080500    1.35724100
 H                 -0.95587200    4.13325700    2.53204900
 H                 -9.94748700    5.29719000   -0.14870600
 H                -11.36904100    3.92418700    1.42078400
 H                -12.34419800    4.40315600   -0.00639100
 H                -10.30844500    4.14005700   -1.47300300
 H                -21.21828100    4.18010900    0.58159200
 H                -23.25402300    3.69315500    1.99023200
 H                -22.15828200    3.79530100   -0.89681000
 H                -23.65349000    4.95271300    0.77506300
 H                -32.26474300    4.83387000   -0.78473800
 H                -32.58860000    3.67255300   -2.11429900
 H                -33.69573800    3.44341800    0.76051100
 H                -34.64865800    3.92642000   -0.68058900
 H                -12.27497900   -5.89856300    0.58304400
 H                -23.27412000   -5.24826700   -0.76220600
 H                -10.83223300   -4.53943200   -0.97940900
 H                -11.92734900   -4.73271800    1.90320600
 H                -21.24242200   -4.75844900   -2.17565500
 H                 -9.87514500   -5.00933200    0.46289800
 H                -20.83870300   -6.01831000   -0.96230800
 H                -22.33074100   -4.86393000    0.71411900
 C                 22.83919300    0.14085300   -0.00315300
 C                 22.83880200   -1.23549300    0.21356600
 C                 24.19620200   -1.66916400    0.18898600
 C                 25.00952300   -0.56007500   -0.03386500
 C                 22.22048900   -3.38115600    0.99411300
 C                 23.44541900   -3.91722100    0.23964100
 C                 26.42766200   -0.47327500   -0.14091900
 C                 27.23702100    0.73543300   -0.41357200
 C                 28.75887500    0.68579900   -0.50052500
 C                 29.51056000   -0.57164800   -0.31652900
 C                 27.31638200   -1.53023900   -0.01180400
 C                 28.57745700   -1.56947000   -0.08275400
 C                 30.93143600   -0.74518200   -0.36794000
 C                 31.70448700   -1.88918900   -0.21913600
 C                 33.08364800   -1.51242600   -0.35519300
 C                 33.11727800   -0.15787400   -0.58608500
 C                 32.36587900   -4.16572800   -0.22410300
 C                 33.69557400   -3.68092100    0.37211700
 O                 21.76764700   -2.09279200    0.42580900
 O                 24.59232300   -2.98558100    0.36792100
 O                 31.28113800   -3.18857600    0.02882100
 O                 34.13720600   -2.42163800   -0.26758900
 N                 26.71485000    1.95193500   -0.60371900
 N                 29.33259200    1.86996600   -0.75313400
 H                 33.90712600    0.55378200   -0.75282600
 H                 22.45580300   -3.23683700    2.05706200
 H                 21.36841700   -4.05660300    0.88914600
 H                 23.79205100   -4.86152800    0.66576100
 H                 23.21815600   -4.04538700   -0.82640900
 H                 32.03598800   -5.09219400    0.25191600
 H                 32.45957500   -4.31289800   -1.30799500
 H                 33.59461700   -3.51467100    1.45300800
 H                 34.49440700   -4.40106100    0.17892400
 O                 31.80525100    0.33313000   -0.59910500
 O                 24.17292500    0.56515200   -0.15623300
 O                 20.47958500    0.69649900   -0.04412700
 O                 13.03209000    0.48735800    0.05684300
 O                  9.34953800    0.15030900    0.12712700
 O                  1.89516800   -0.08655200    0.31756500
 O                 -1.80165000    0.03579700    0.29753400
 O                 -9.26245800   -0.14908600    0.25544400
 O                -12.94622200   -0.45534000    0.12049200
 O                -20.40113100   -0.61117800   -0.03318300
 O                -24.09410000   -0.45313200   -0.15906200
 O                -31.54602300   -0.60067800   -0.36691700
 S                 28.04708300    3.08340100   -0.89386100
 S                 16.82361100   -2.00178800   -0.29068200
 S                  5.54285400    2.63504500    0.32586100
 S                 -5.46705800   -2.65960200    0.13007500
 S                -16.72791600    2.06940100    0.11181000
 S                -27.77100700   -3.12897300   -0.28112300

 1 2 1.0 6 1.5 7 1.5
 2 3 1.0 8 1.5
 3 4 1.0 9 1.5
 4 5 1.5 18 1.5
 5 6 1.5 10 1.0
 6 11 1.0
 7 12 1.5 213 1.0
 8 221 1.0
 9 221 1.0
 10
 11
 12 13 1.5 105 1.0
 13 14 1.5 104 1.0
 14 33 1.5 213 1.0
 15 16 1.5 86 1.5 214 1.0
 16 17 1.5 107 1.0
 17 18 1.5 106 1.0
 18 214 1.0
 19 20 1.0 24 1.5 25 1.5
 20 21 1.0 26 1.5
 21 22 1.0 27 1.5
 22 23 1.5 36 1.5
 23 24 1.5 28 1.0
 24 29 1.0
 25 30 1.5 211 1.0
 26 220 1.0
 27 220 1.0
 28
 29
 30 31 1.5 101 1.0
 31 32 1.5 100 1.0
 32 51 1.5 211 1.0
 33 34 1.5 212 1.0
 34 35 1.5 103 1.0
 35 36 1.5 102 1.0
 36 212 1.0
 37 38 1.0 42 1.5 43 1.5
 38 39 1.0 44 1.5
 39 40 1.0 45 1.5
 40 41 1.5 54 1.5
 41 42 1.5 46 1.0
 42 47 1.0
 43 48 1.5 209 1.0
 44 219 1.0
 45 219 1.0
 46
 47
 48 49 1.5 97 1.0
 49 50 1.5 96 1.0
 50 69 1.5 209 1.0
 51 52 1.5 210 1.0
 52 53 1.5 99 1.0
 53 54 1.5 98 1.0
 54 210 1.0
 55 56 1.0 60 1.5 61 1.5
 56 57 1.0 62 1.5
 57 58 1.0 63 1.5
 58 59 1.5 72 1.5
 59 60 1.5 64 1.0
 60 65 1.0
 61 66 1.5 207 1.0
 62 218 1.0
 63 218 1.0
 64
 65
 66 67 1.5 93 1.0
 67 68 1.5 92 1.0
 68 172 1.5 207 1.0
 69 70 1.5 208 1.0
 70 71 1.5 95 1.0
 71 72 1.5 94 1.0
 72 208 1.0
 73 74 1.0 78 1.5 79 1.5
 74 75 1.0 80 1.5
 75 76 1.0 81 1.5
 76 77 1.5 90 1.0
 77 78 1.5 82 1.0
 78 83 1.0
 79 84 1.5 215 1.0
 80 222 1.0
 81 222 1.0
 82
 83
 84 85 1.5 109 1.0
 85 86 1.5 108 1.0
 86 215 1.0
 87 88 2.0 91 1.0 216 1.0
 88 89 1.5 111 1.0
 89 90 1.5 110 1.0
 90 216 1.0
 91
 92 112 1.0
 93 113 1.0
 94 114 1.0
 95 115 1.0
 96 116 1.0
 97 117 1.0
 98 118 1.0
 99 119 1.0
 100 120 1.0
 101 121 1.0
 102 122 1.0
 103 123 1.0
 104 124 1.0
 105 125 1.0
 106 126 1.0
 107 127 1.0
 108 128 1.0
 109 129 1.0
 110 130 1.0
 111 131 1.0
 112 113 1.0 132 1.0 135 1.0
 113 133 1.0 134 1.0
 114 115 1.0 138 1.0 139 1.0
 115 136 1.0 137 1.0
 116 117 1.0 140 1.0 143 1.0
 117 141 1.0 142 1.0
 118 119 1.0 145 1.0 147 1.0
 119 144 1.0 146 1.0
 120 121 1.0 148 1.0 149 1.0
 121 150 1.0 151 1.0
 122 123 1.0 152 1.0 155 1.0
 123 153 1.0 154 1.0
 124 125 1.0 166 1.0 169 1.0
 125 164 1.0 167 1.0
 126 127 1.0 168 1.0 170 1.0
 127 165 1.0 171 1.0
 128 129 1.0 156 1.0 158 1.0
 129 157 1.0 159 1.0
 130 131 1.0 160 1.0 161 1.0
 131 162 1.0 163 1.0
 132
 133
 134
 135
 136
 137
 138
 139
 140
 141
 142
 143
 144
 145
 146
 147
 148
 149
 150
 151
 152
 153
 154
 155
 156
 157
 158
 159
 160
 161
 162
 163
 164
 165
 166
 167
 168
 169
 170
 171
 172 173 1.5 206 1.0
 173 174 1.5 190 1.0
 174 175 1.5 191 1.0
 175 178 1.5 206 1.0
 176 177 1.0 190 1.0 197 1.0 198 1.0
 177 191 1.0 199 1.0 200 1.0
 178 179 1.0 182 1.5
 179 180 1.0 194 1.5
 180 181 1.0 195 1.5
 181 183 2.0 184 1.5
 182 183 2.0
 183
 184 185 1.5 205 1.0
 185 186 1.5 192 1.0
 186 187 2.0 193 1.0
 187 196 1.0 205 1.0
 188 189 1.0 192 1.0 201 1.0 202 1.0
 189 193 1.0 203 1.0 204 1.0
 190
 191
 192
 193
 194 217 1.0
 195 217 1.0
 196
 197
 198
 199
 200
 201
 202
 203
 204
 205
 206
 207
 208
 209
 210
 211
 212
 213
 214
 215
 216
 217
 218
 219
 220
 221
 222

