%chk=B-OSeO6.chk
%mem=600MW
# td=(nstates=10) b3lyp/lanl2dz 

B-OSeO6

0 1
 C                 15.22677200    1.43685200    0.03296400
 C                 15.97574800    0.18804000    0.05461500
 C                 17.47129100    0.20580500   -0.04023400
 C                 18.18252400    1.47265100   -0.13367800
 C                 17.39524300    2.63151100   -0.14652800
 C                 15.97945100    2.61443600   -0.06989000
 C                 13.78880200    1.51610900    0.11739500
 N                 15.39831700   -1.02087500    0.15328700
 N                 18.08418000   -0.98979300   -0.03559500
 H                 17.89014300    3.59393700   -0.21817200
 H                 15.45634200    3.56418600   -0.08964900
 C                 12.93338800    2.60973500    0.24665400
 C                 11.58645900    2.13807400    0.27106600
 C                 11.63077600    0.75297500    0.15532100
 C                 21.79884600    0.89464000   -0.14593400
 C                 21.80158600    2.25351300   -0.44035200
 C                 20.44013800    2.68104700   -0.48501200
 C                 19.61834800    1.58630300   -0.22188800
 C                  4.08834100   -1.00177400    0.38316800
 C                  4.79583700    0.26612500    0.27458800
 C                  6.29183800    0.28782700    0.18600700
 C                  7.04482100   -0.95781000    0.22786300
 C                  6.29556500   -2.13653500    0.34222600
 C                  4.87981100   -2.15774700    0.41353700
 C                  2.65294100   -1.12033900    0.46700500
 N                  4.17874900    1.45917900    0.24825000
 N                  6.86537500    1.49722900    0.07122600
 H                  6.82177700   -3.08416000    0.37621100
 H                  4.38818800   -3.12093500    0.49563100
 C                  1.83521600   -2.21824300    0.73106000
 C                  0.47223000   -1.79806900    0.67873900
 C                  0.46897100   -0.44015300    0.37881200
 C                 10.64053800   -0.26887500    0.11859600
 C                 10.68702200   -1.65440400    0.00907600
 C                  9.34063500   -2.12757500    0.02968600
 C                  8.48337400   -1.03445900    0.15018800
 C                 -7.14007700    0.97785600    0.14763600
 C                 -6.37485900   -0.26055600    0.17790300
 C                 -4.87720400   -0.22086100    0.14068500
 C                 -4.18086200    1.05717100    0.09381000
 C                 -4.98388600    2.20532500    0.07056400
 C                 -6.40096700    2.16726200    0.09319700
 C                 -8.58141300    1.03638800    0.17573100
 N                 -6.93834400   -1.47879500    0.23490400
 N                 -4.24794200   -1.40780400    0.15014500
 H                 -4.50062400    3.17551500    0.03317300
 H                 -6.93654000    3.10995600    0.06875700
 C                 -9.45658500    2.11655200    0.28456100
 C                -10.79656800    1.62656100    0.24647500
 C                -10.72816900    0.24407800    0.11271700
 C                 -0.55850200    0.52704700    0.19170600
 C                 -0.56512700    1.89224200   -0.07339900
 C                 -1.92989200    2.30253300   -0.15421000
 C                 -2.74505900    1.19170200    0.05869200
 C                -18.24720600   -1.58111100   -0.13332600
 C                -17.54506800   -0.31062100   -0.24072500
 C                -16.04737900   -0.27708900   -0.23578900
 C                -15.28855800   -1.51522000   -0.12245200
 C                -16.03353600   -2.70016900   -0.05013100
 C                -17.45092800   -2.73133900   -0.05590500
 C                -19.68430000   -1.70826500   -0.12223100
 N                -18.16869200    0.87190000   -0.37468000
 N                -15.47732700    0.93234600   -0.36554100
 H                -15.50283500   -3.64268200    0.02748100
 H                -17.93978100   -3.69681800    0.01682300
 C                -20.50970800   -2.82887500   -0.20885200
 C                -21.86946100   -2.40242200   -0.13640100
 C                -21.86240500   -1.01746100   -0.00566100
 C                -11.70234800   -0.78913700    0.01646000
 C                -11.63375800   -2.17476200   -0.08314600
 C                -12.97319000   -2.66215900   -0.15345300
 C                -13.84812300   -1.57767400   -0.09797300
 C                 26.43590600   -0.66616200    0.00595600
 C                 27.14985800    0.60050500   -0.08182100
 C                 28.64413600    0.61696800   -0.18664700
 C                 29.38751100   -0.63340700   -0.18345600
 C                 28.63707200   -1.80841100   -0.07891700
 C                 27.21928200   -1.82571600    0.00875900
 C                 24.99962800   -0.77635000    0.10036400
 N                 26.53910700    1.79681200   -0.06742000
 N                 29.22212600    1.82892900   -0.27088900
 H                 29.15966500   -2.75900100   -0.06984700
 H                 26.72390300   -2.78797200    0.07795600
 C                 24.17768900   -1.86885700    0.36948700
 C                 22.81656200   -1.43948500    0.32928600
 C                 22.82024100   -0.08152900    0.03047600
 C                 32.97612500    0.05346900   -0.36260000
 C                 33.03591000   -1.31519200   -0.45306500
 C                 31.68586800   -1.80542800   -0.40766300
 C                 30.83062500   -0.71589000   -0.28740600
 H                 33.71266500    0.83789400   -0.36088400
 O                -22.95184400   -3.26963000   -0.19597800
 O                -20.13608300   -4.16565300   -0.34797800
 O                -13.28779900   -4.01634200   -0.26424900
 O                -10.51445700   -2.99667500   -0.12748300
 O                -11.91540800    2.44323400    0.35174500
 O                 -9.14204500    3.46944600    0.41567800
 O                 -2.31752300    3.61726600   -0.41329100
 O                  0.50824700    2.75618900   -0.25335500
 O                 -0.60208900   -2.64575900    0.91901400
 O                  2.21910400   -3.52939200    1.01387800
 O                  9.00489200   -3.47844700   -0.06440200
 O                 11.79154900   -2.48770400   -0.11814600
 O                 10.48364300    2.97223900    0.40746000
 O                 13.27132600    3.95958600    0.34485800
 O                 20.06176300    3.99525900   -0.76035900
 O                 22.87923700    3.09716400   -0.67854400
 O                 21.73884200   -2.28126700    0.57574200
 O                 24.55555000   -3.18254300    0.64660700
 O                 31.36774700   -3.16386400   -0.47345400
 O                 34.15257500   -2.14159100   -0.58518700
 C                -22.53533800   -4.66920900    0.02973300
 C                -21.27706100   -5.00458000   -0.78200200
 C                -12.10893300   -4.81873100   -0.66509800
 C                -10.87100100   -4.40399000    0.14136800
 C                -11.57273600    3.85743400    0.10115700
 C                -10.30866000    4.25884400    0.87317600
 C                 -1.19427500    4.42007400   -0.94910100
 C                  0.08615700    4.16670500   -0.14214700
 C                 -0.19702500   -4.06301500    0.83489600
 C                  1.10660700   -4.30614200    1.60719700
 C                 10.14413300   -4.29032200   -0.55049500
 C                 11.43985000   -3.89252300    0.16907400
 C                 10.83564300    4.37739100    0.12216500
 C                 12.13489700    4.77184400    0.83721700
 C                 21.17599800    4.76849900   -1.35538200
 C                 22.48112900    4.51643700   -0.58859300
 C                 22.13468200   -3.70070500    0.48522200
 C                 23.44259400   -3.95380400    1.24701700
 C                 32.51236500   -3.96498800   -0.96319900
 C                 33.81496900   -3.54458600   -0.26785200
 H                -23.38422400   -5.27756200   -0.29102800
 H                -20.95943400   -6.03618900   -0.61245000
 H                -21.45071500   -4.83459400   -1.85245000
 H                -22.35231200   -4.81802900    1.10237300
 H                -11.05320600   -4.52768400    1.21742700
 H                 -9.99558000   -4.98559800   -0.15718900
 H                -12.38390600   -5.85717000   -0.46504800
 H                -11.93582900   -4.67459900   -1.73941300
 H                -11.42848200    4.00428800   -0.97766400
 H                -10.04362900    5.30229000    0.68599300
 H                -10.44470600    4.09180500    1.94956500
 H                -12.43895000    4.42928300    0.44236300
 H                  0.92126800    4.74997100   -0.53729400
 H                 -1.04490500    4.15481000   -2.00376400
 H                 -0.07244400    4.40977700    0.91717700
 H                 -1.51661400    5.46086200   -0.86604000
 H                 -0.07562100   -4.33782700   -0.22154900
 H                 -1.02413200   -4.62619300    1.27367700
 H                  1.41694900   -5.35191000    1.54308600
 H                  0.99345100   -4.01033600    2.65826500
 H                  9.87304700   -5.32705300   -0.33652300
 H                 11.33181100   -4.01935000    1.25472500
 H                 12.28608900   -4.48167000   -0.19227200
 H                 10.24336800   -4.14256600   -1.63370200
 H                 21.30755200   -4.25987700    0.92902700
 H                 23.33962900   -3.65950000    2.29950100
 H                 22.24634600   -3.97401500   -0.57272300
 H                 23.74598100   -5.00129300    1.17819200
 H                 32.25929500   -5.00261500   -0.73169900
 H                 32.59582700   -3.83199700   -2.04986000
 H                 33.72135200   -3.65347300    0.82118100
 H                 34.65884100   -4.13722000   -0.62982100
 H                 12.40651600    5.80867500    0.62443600
 H                 23.30948000    5.07691400   -1.02840300
 H                 10.93907800    4.50673400   -0.96362300
 H                 12.03996900    4.62180200    1.92048200
 H                 21.28370600    4.47570300   -2.40784500
 H                  9.99171500    4.96664600    0.48867000
 H                 20.87124800    5.81557800   -1.28656800
 H                 22.36491900    4.78829500    0.46916700
 C                -22.88222400   -0.03416100    0.11555800
 C                -22.88022500    1.33354500    0.38033400
 C                -24.23761700    1.76812700    0.37611200
 C                -25.05305100    0.66836000    0.11749600
 C                -22.26085800    3.44879400    1.23947900
 C                -23.48669400    4.01246300    0.50692800
 C                -26.47306700    0.59218200    0.01414500
 C                -27.29071200   -0.60151100   -0.31268500
 C                -28.82361400   -0.53374100   -0.38562500
 C                -29.55647400    0.72685500   -0.13295600
 C                -27.35067500    1.64884200    0.19753100
 C                -28.61215900    1.70284600    0.13825200
 C                -30.97581900    0.92383500   -0.16194300
 C                -31.72576200    2.07562600    0.03882900
 C                -33.11329900    1.73039500   -0.09463700
 C                -33.17545500    0.38638000   -0.37518000
 C                -32.34349100    4.36257300    0.12144400
 C                -33.67605700    3.88298700    0.71561000
 O                -21.80789700    2.18315400    0.62253800
 O                -24.63305800    3.07780300    0.60429700
 O                -31.27533100    3.35758000    0.32949700
 O                -34.14869600    2.65520600    0.03821400
 N                -26.75226800   -1.79662500   -0.56396000
 N                -29.43733700   -1.68188100   -0.69116500
 H                -33.98064900   -0.30355000   -0.55890500
 H                -22.49581400    3.26479400    2.29644100
 H                -21.40931400    4.12851500    1.15987200
 H                -23.83153300    4.94121000    0.96744200
 H                -23.26079000    4.17895600   -0.55421100
 H                -31.99125700    5.26621100    0.62464500
 H                -32.44600600    4.54822800   -0.95579100
 H                -33.56658500    3.67776800    1.78897200
 H                -34.46284000    4.62444800    0.55634200
 O                -31.87326400   -0.12827300   -0.42215900
 O                -24.21702500   -0.45192800   -0.04735600
 O                -20.52367800   -0.58482300    0.00501600
 O                -13.05809700   -0.41546300    0.00803000
 O                 -9.37157500   -0.12546600    0.06985100
 O                 -1.89304200    0.09007600    0.27337100
 O                  1.80408600   -0.01669900    0.24890900
 O                  9.29116000    0.11896900    0.20509500
 O                 12.97919700    0.36399900    0.06122600
 O                 20.46214800    0.47777600   -0.01152400
 O                 24.15655600    0.33302500   -0.11015600
 O                 31.63522400    0.43925100   -0.26093500
 Se               -28.13384500   -3.01293700   -0.92924400
 Se               -16.85149200    2.20176700   -0.50721700
 Se                -5.55775400   -2.74946000    0.22904600
 Se                 5.49861500    2.78290700    0.08319800
 Se                16.76017400   -2.31108700    0.11526600
 Se                27.86103500    3.11843400   -0.20917700

 1 2 1.0 6 1.5 7 1.5
 2 3 1.0 8 1.5
 3 4 1.0 9 1.5
 4 5 1.5 18 1.5
 5 6 1.5 10 1.0
 6 11 1.0
 7 12 1.5 213 1.0
 8 221 1.0
 9 221 1.0
 10
 11
 12 13 1.5 105 1.0
 13 14 1.5 104 1.0
 14 33 1.5 213 1.0
 15 16 1.5 86 1.5 214 1.0
 16 17 1.5 107 1.0
 17 18 1.5 106 1.0
 18 214 1.0
 19 20 1.0 24 1.5 25 1.5
 20 21 1.0 26 1.5
 21 22 1.0 27 1.5
 22 23 1.5 36 1.5
 23 24 1.5 28 1.0
 24 29 1.0
 25 30 1.5 211 1.0
 26 220 1.0
 27 220 1.0
 28
 29
 30 31 1.5 101 1.0
 31 32 1.5 100 1.0
 32 51 1.5 211 1.0
 33 34 1.5 212 1.0
 34 35 1.5 103 1.0
 35 36 1.5 102 1.0
 36 212 1.0
 37 38 1.0 42 1.5 43 1.5
 38 39 1.0 44 1.5
 39 40 1.0 45 1.5
 40 41 1.5 54 1.5
 41 42 1.5 46 1.0
 42 47 1.0
 43 48 1.5 209 1.0
 44 219 1.0
 45 219 1.0
 46
 47
 48 49 1.5 97 1.0
 49 50 1.5 96 1.0
 50 69 1.5 209 1.0
 51 52 1.5 210 1.0
 52 53 1.5 99 1.0
 53 54 1.5 98 1.0
 54 210 1.0
 55 56 1.0 60 1.5 61 1.5
 56 57 1.0 62 1.5
 57 58 1.0 63 1.5
 58 59 1.5 72 1.5
 59 60 1.5 64 1.0
 60 65 1.0
 61 66 1.5 207 1.0
 62 218 1.0
 63 218 1.0
 64
 65
 66 67 1.5 93 1.0
 67 68 1.5 92 1.0
 68 172 1.5 207 1.0
 69 70 1.5 208 1.0
 70 71 1.5 95 1.0
 71 72 1.5 94 1.0
 72 208 1.0
 73 74 1.0 78 1.5 79 1.5
 74 75 1.0 80 1.5
 75 76 1.0 81 1.5
 76 77 1.5 90 1.0
 77 78 1.5 82 1.0
 78 83 1.0
 79 84 1.5 215 1.0
 80 222 1.0
 81 222 1.0
 82
 83
 84 85 1.5 109 1.0
 85 86 1.5 108 1.0
 86 215 1.0
 87 88 2.0 91 1.0 216 1.0
 88 89 1.5 111 1.0
 89 90 1.5 110 1.0
 90 216 1.0
 91
 92 112 1.0
 93 113 1.0
 94 114 1.0
 95 115 1.0
 96 116 1.0
 97 117 1.0
 98 118 1.0
 99 119 1.0
 100 120 1.0
 101 121 1.0
 102 122 1.0
 103 123 1.0
 104 124 1.0
 105 125 1.0
 106 126 1.0
 107 127 1.0
 108 128 1.0
 109 129 1.0
 110 130 1.0
 111 131 1.0
 112 113 1.0 132 1.0 135 1.0
 113 133 1.0 134 1.0
 114 115 1.0 138 1.0 139 1.0
 115 136 1.0 137 1.0
 116 117 1.0 140 1.0 143 1.0
 117 141 1.0 142 1.0
 118 119 1.0 145 1.0 147 1.0
 119 144 1.0 146 1.0
 120 121 1.0 148 1.0 149 1.0
 121 150 1.0 151 1.0
 122 123 1.0 152 1.0 155 1.0
 123 153 1.0 154 1.0
 124 125 1.0 166 1.0 169 1.0
 125 164 1.0 167 1.0
 126 127 1.0 168 1.0 170 1.0
 127 165 1.0 171 1.0
 128 129 1.0 156 1.0 158 1.0
 129 157 1.0 159 1.0
 130 131 1.0 160 1.0 161 1.0
 131 162 1.0 163 1.0
 132
 133
 134
 135
 136
 137
 138
 139
 140
 141
 142
 143
 144
 145
 146
 147
 148
 149
 150
 151
 152
 153
 154
 155
 156
 157
 158
 159
 160
 161
 162
 163
 164
 165
 166
 167
 168
 169
 170
 171
 172 173 1.5 206 1.0
 173 174 1.5 190 1.0
 174 175 1.5 191 1.0
 175 178 1.5 206 1.0
 176 177 1.0 190 1.0 197 1.0 198 1.0
 177 191 1.0 199 1.0 200 1.0
 178 179 1.0 182 2.0
 179 180 1.0 194 1.5
 180 181 1.0 195 1.5
 181 183 2.0 184 1.5
 182 183 2.0
 183
 184 185 1.5 205 1.0
 185 186 1.5 192 1.0
 186 187 2.0 193 1.0
 187 196 1.0 205 1.0
 188 189 1.0 192 1.0 201 1.0 202 1.0
 189 193 1.0 203 1.0 204 1.0
 190
 191
 192
 193
 194 217 1.0
 195 217 1.0
 196
 197
 198
 199
 200
 201
 202
 203
 204
 205
 206
 207
 208
 209
 210
 211
 212
 213
 214
 215
 216
 217
 218
 219
 220
 221
 222

