%chk=B-OTeO6.chk
%mem=600MW
# td=(nstates=10) b3lyp/lanl2dz 

B-OTeO6

0 1
 C                 15.27945800    1.22634500   -0.31279500
 C                 16.00516600   -0.00046800    0.00877200
 C                 17.51545900   -0.01275900   -0.04950900
 C                 18.23519400    1.21264400   -0.38709900
 C                 17.46456900    2.34381900   -0.67315900
 C                 16.04534400    2.34937100   -0.64204100
 C                 13.83903300    1.33754900   -0.28942200
 N                 15.37679900   -1.13144600    0.35672800
 N                 18.14919300   -1.16382800    0.21321000
 H                 17.97169900    3.26726100   -0.93169100
 H                 15.53422700    3.27522000   -0.88291900
 C                 13.00836700    2.45626800   -0.30950300
 C                 11.64884400    2.02015700   -0.28983800
 C                 11.66149700    0.63009800   -0.26536500
 C                 21.85384700    0.70968500   -0.07444100
 C                 21.86530900    1.90725000   -0.78029800
 C                 20.50490500    2.27664400   -1.01053300
 C                 19.67604000    1.30532700   -0.45371600
 C                  4.08103400   -0.93120500    0.11780300
 C                  4.79142800    0.28772200   -0.26522500
 C                  6.29814700    0.26664800   -0.39201300
 C                  7.03131900   -0.96425600   -0.10908100
 C                  6.27314500   -2.09007300    0.22784800
 C                  4.85826300   -2.07560400    0.33269200
 C                  2.64776100   -1.01208600    0.28248000
 N                  4.15195400    1.43434400   -0.53199800
 N                  6.91560900    1.38905100   -0.78402600
 H                  6.78884000   -3.02276500    0.42996500
 H                  4.35976900   -2.99915100    0.60514000
 C                  1.83296100   -2.06147200    0.70876400
 C                  0.47379400   -1.62718300    0.68577700
 C                  0.46818200   -0.30868100    0.24618900
 C                 10.64685700   -0.36940200   -0.24056000
 C                 10.65881900   -1.75963900   -0.24843000
 C                  9.29981900   -2.19577100   -0.20511400
 C                  8.47001000   -1.07670700   -0.17926400
 C                 -7.14448600    1.08456900   -0.11440800
 C                 -6.39173100   -0.16593300   -0.17522700
 C                 -4.88095200   -0.12874000   -0.21138000
 C                 -4.18861600    1.15627900   -0.14395600
 C                 -4.98499400    2.30416500   -0.07737800
 C                 -6.40392600    2.26999600   -0.06776400
 C                 -8.58765700    1.15294300   -0.08288400
 N                 -6.99548900   -1.36178700   -0.20105700
 N                 -4.22211500   -1.29191000   -0.30491100
 H                 -4.49876800    3.27262100   -0.03078300
 H                 -6.93566900    3.21414100   -0.01899800
 C                 -9.44625000    2.20393100    0.23312600
 C                -10.79437800    1.75573300    0.08908300
 C                -10.74641000    0.42893500   -0.32379000
 C                 -0.56045700    0.65203700    0.02549800
 C                 -0.57389800    2.01638200   -0.24102500
 C                 -1.94124100    2.41342600   -0.35214700
 C                 -2.75040600    1.29567400   -0.15788800
 C                -18.27738500   -1.36530000   -0.59215600
 C                -17.60321300   -0.07100000   -0.53745900
 C                -16.09646600   -0.01007000   -0.63089700
 C                -15.33003100   -1.24623700   -0.77395400
 C                -16.05793000   -2.43732200   -0.86769000
 C                -17.47349100   -2.49378900   -0.78117200
 C                -19.70967800   -1.52782200   -0.49152700
 N                -18.27898400    1.08291000   -0.44919200
 N                -15.51113900    1.19482600   -0.61942700
 H                -15.51751000   -3.36954800   -0.99058000
 H                -17.94869900   -3.46699200   -0.84330500
 C                -20.53181700   -2.61024500   -0.79898000
 C                -21.88180300   -2.26262900   -0.49150600
 C                -21.87065400   -0.96488300    0.00823500
 C                -11.73317300   -0.54949500   -0.63662600
 C                -11.67958700   -1.86281700   -1.09050000
 C                -13.02489900   -2.32354800   -1.21483000
 C                -13.88832500   -1.29354400   -0.84549500
 C                 26.48261800   -0.69988100    0.71691300
 C                 27.21786000    0.49413200    0.30460300
 C                 28.72718700    0.45648800    0.22801300
 C                 29.43554100   -0.76597000    0.59597800
 C                 28.65922500   -1.85283200    1.00328900
 C                 27.23916600   -1.82403700    1.05706400
 C                 25.04120500   -0.76657200    0.80539300
 N                 26.59756000    1.64071600   -0.00339600
 N                 29.36583500    1.56777900   -0.16893600
 H                 29.15966300   -2.77251800    1.28689200
 H                 26.72338100   -2.72384200    1.37419800
 C                 24.20641700   -1.70965700    1.40089700
 C                 22.84859300   -1.32517000    1.18238200
 C                 22.86708000   -0.14661900    0.44540300
 C                 33.05515100   -0.25009600    0.36725400
 C                 33.06376100   -1.60193300    0.60626700
 C                 31.69492700   -2.02243700    0.72324400
 C                 30.87895800   -0.90913800    0.55275900
 H                 33.82153100    0.48778000    0.20583300
 O                -22.95912300   -3.11938500   -0.68363800
 O                -20.16341800   -3.84980300   -1.32476000
 O                -13.35468500   -3.60698700   -1.65313900
 O                -10.57037000   -2.63695500   -1.41330200
 O                -11.90123700    2.55480200    0.35361600
 O                 -9.11079700    3.49682500    0.63951100
 O                 -2.33637800    3.72613400   -0.61552100
 O                  0.49485200    2.89538300   -0.38426500
 O                 -0.59417800   -2.42460000    1.08289000
 O                  2.21684000   -3.34159400    1.11316400
 O                  8.92980000   -3.54218500   -0.20499100
 O                 11.74214400   -2.62898800   -0.31594000
 O                 10.56374900    2.88998400   -0.27557400
 O                 13.37793000    3.80236500   -0.33239100
 O                 20.13399400    3.43279100   -1.69964600
 O                 22.94968000    2.65251500   -1.23010000
 O                 21.76033000   -2.03816800    1.67391700
 O                 24.57010000   -2.85221200    2.11553000
 O                 31.32677800   -3.34750800    0.97259300
 O                 34.15074600   -2.47179000    0.70943000
 C                -22.51030700   -4.51262100   -0.88337100
 C                -21.33437300   -4.57432200   -1.86739900
 C                -12.20928200   -4.26112300   -2.32472900
 C                -10.92271000   -4.06709500   -1.51092100
 C                -11.53117700    3.98262700    0.41884600
 C                -10.26440800    4.18379000    1.26153700
 C                 -1.20940900    4.53858400   -1.12469300
 C                  0.05079300    4.29976300   -0.28222500
 C                 -0.21106900   -3.84897100    1.12979700
 C                  1.13253500   -4.02997200    1.84860300
 C                 10.04482900   -4.40822500   -0.64837100
 C                 11.35194700   -4.00525100    0.04783700
 C                 10.96393700    4.25601200   -0.66617500
 C                 12.25054700    4.67902500    0.05569300
 C                 21.26692100    3.98585100   -2.47451900
 C                 22.54113900    4.01690900   -1.61966200
 C                 22.15260500   -3.39936100    2.08864400
 C                 23.44131300   -3.36897600    2.92149000
 C                 32.44876500   -4.27757700    0.71613500
 C                 33.75103300   -3.74946500    1.33422400
 H                -23.38105700   -5.04268200   -1.27670000
 H                -20.99619300   -5.60259000   -2.01685800
 H                -21.61209500   -4.12518500   -2.82988200
 H                -22.22094400   -4.93753000    0.08730200
 H                -11.04362200   -4.47583500   -0.49851500
 H                -10.07124700   -4.54117900   -2.00535600
 H                -12.47882100   -5.31778500   -2.39517000
 H                -12.09881100   -3.83278600   -3.32949300
 H                -11.37692300    4.35930600   -0.60143300
 H                 -9.98319500    5.23869600    1.30928500
 H                -10.40757200    3.78604900    2.27478500
 H                -12.38913600    4.48259000    0.87509100
 H                  0.88905200    4.89576100   -0.65124500
 H                 -1.02822100    4.27247500   -2.17428300
 H                 -0.14261500    4.53874600    0.77240800
 H                 -1.54414400    5.57641500   -1.05339100
 H                 -0.15384800   -4.23846900    0.10434800
 H                 -1.01682600   -4.34765300    1.67410600
 H                  1.42689200   -5.08188800    1.88146200
 H                  1.08294100   -3.62068200    2.86611300
 H                  9.74838500   -5.42474600   -0.37812300
 H                 11.24093300   -4.06935800    1.13883600
 H                 12.18144700   -4.63662100   -0.28023600
 H                 10.14600900   -4.32270500   -1.73824700
 H                 21.31304300   -3.77473800    2.67892000
 H                 23.31544000   -2.72779600    3.80364500
 H                 22.28939500   -4.02102200    1.19337300
 H                 23.73987000   -4.37445400    3.22811300
 H                 32.15112500   -5.22398900    1.17448600
 H                 32.56132000   -4.40456600   -0.36869100
 H                 33.62813600   -3.59721100    2.41516400
 H                 34.57912300   -4.43778800    1.14718000
 H                 12.55454900    5.68811100   -0.23331500
 H                 23.38400900    4.41981300   -2.18661700
 H                 11.10584400    4.29033800   -1.75494200
 H                 12.11855700    4.62259800    1.14414200
 H                 21.41765400    3.36799200   -3.36938500
 H                 10.12544100    4.89550900   -0.37934000
 H                 20.95774900    4.99363600   -2.76243800
 H                 22.37967800    4.61475400   -0.71240500
 C                -22.87828000   -0.08337500    0.49032200
 C                -22.85400500    1.12853200    1.17560800
 C                -24.20738900    1.52047900    1.39167500
 C                -25.04269600    0.54872500    0.84424800
 C                -22.17585900    2.85810700    2.63952700
 C                -23.43932700    3.61189200    2.20076600
 C                -26.46828900    0.49113100    0.81270900
 C                -27.31618400   -0.53470500    0.14605800
 C                -28.86753000   -0.46545600    0.21339100
 C                -29.55556100    0.63022000    0.94229900
 C                -27.31794600    1.40991400    1.40346000
 C                -28.58043300    1.46516700    1.45708700
 C                -30.96971200    0.81489300    1.09570300
 C                -31.67329300    1.82763400    1.73592300
 C                -33.07514200    1.54425400    1.60862700
 C                -33.19293000    0.37515200    0.89607000
 C                -32.22564300    3.94921900    2.63754700
 C                -33.51901300    3.29218100    3.14248400
 O                -21.76439100    1.87142100    1.61757800
 O                -24.58230900    2.68096200    2.05403300
 O                -31.16972900    2.93732900    2.40532000
 O                -34.07391100    2.36602000    2.13132700
 N                -26.77929800   -1.54300900   -0.53481000
 N                -29.54653300   -1.42597300   -0.41271000
 H                -34.02725200   -0.21384400    0.55686400
 H                -22.35148200    2.33500400    3.58922400
 H                -21.32758600    3.53918900    2.74088700
 H                -23.75177500    4.33610100    2.95684000
 H                -23.27366900    4.11721100    1.24041800
 H                -31.81278600    4.63069900    3.38532500
 H                -32.40881200    4.48837700    1.69870400
 H                -33.33018500    2.73568500    4.07041300
 H                -34.29699600    4.04133100    3.30938900
 O                -31.91178400   -0.08900100    0.57020800
 O                -24.22232600   -0.44696600    0.28098700
 O                -20.53984200   -0.50824300    0.01190600
 O                -13.08503500   -0.19312800   -0.48425500
 O                 -9.39521000    0.05217100   -0.43071200
 O                 -1.89290900    0.20304500    0.07674900
 O                  1.79787700    0.07565400   -0.00362000
 O                  9.30700000    0.05687300   -0.19857400
 O                 13.00197000    0.20402400   -0.26438400
 O                 20.51355500    0.33376800    0.12891500
 O                 24.20880000    0.20292800    0.21057300
 O                 31.72823100    0.19209200    0.33075700
 Te               -28.25036800   -2.71957300   -1.28936900
 Te               -16.94938600    2.61668400   -0.45770200
 Te                -5.57512500   -2.80522000   -0.32799300
 Te                 5.52048000    2.83543700   -1.06516900
 Te                16.76601900   -2.57779300    0.66859800
 Te                27.99100100    3.01580500   -0.53117000

 1 2 1.0 6 1.5 7 1.5
 2 3 1.0 8 1.5
 3 4 1.0 9 1.5
 4 5 1.5 18 1.5
 5 6 1.5 10 1.0
 6 11 1.0
 7 12 1.5 213 1.0
 8 221 1.0
 9 221 1.0
 10
 11
 12 13 1.5 105 1.0
 13 14 1.5 104 1.0
 14 33 1.5 213 1.0
 15 16 1.5 86 1.5 214 1.0
 16 17 1.5 107 1.0
 17 18 1.5 106 1.0
 18 214 1.0
 19 20 1.0 24 1.5 25 1.5
 20 21 1.0 26 1.5
 21 22 1.0 27 1.5
 22 23 1.5 36 1.5
 23 24 1.5 28 1.0
 24 29 1.0
 25 30 1.5 211 1.0
 26 220 1.0
 27 220 1.0
 28
 29
 30 31 1.5 101 1.0
 31 32 1.5 100 1.0
 32 51 1.5 211 1.0
 33 34 1.5 212 1.0
 34 35 1.5 103 1.0
 35 36 1.5 102 1.0
 36 212 1.0
 37 38 1.0 42 1.5 43 1.5
 38 39 1.0 44 1.5
 39 40 1.0 45 1.5
 40 41 1.5 54 1.5
 41 42 1.5 46 1.0
 42 47 1.0
 43 48 1.5 209 1.0
 44 219 1.0
 45 219 1.0
 46
 47
 48 49 1.5 97 1.0
 49 50 1.5 96 1.0
 50 69 1.5 209 1.0
 51 52 1.5 210 1.0
 52 53 1.5 99 1.0
 53 54 1.5 98 1.0
 54 210 1.0
 55 56 1.0 60 1.5 61 1.5
 56 57 1.0 62 1.5
 57 58 1.0 63 1.5
 58 59 1.5 72 1.5
 59 60 1.5 64 1.0
 60 65 1.0
 61 66 1.5 207 1.0
 62 218 1.0
 63 218 1.0
 64
 65
 66 67 1.5 93 1.0
 67 68 1.5 92 1.0
 68 172 1.5 207 1.0
 69 70 1.5 208 1.0
 70 71 1.5 95 1.0
 71 72 1.5 94 1.0
 72 208 1.0
 73 74 1.0 78 1.5 79 1.5
 74 75 1.0 80 1.5
 75 76 1.0 81 1.5
 76 77 1.5 90 1.0
 77 78 1.5 82 1.0
 78 83 1.0
 79 84 1.5 215 1.0
 80 222 1.0
 81 222 1.0
 82
 83
 84 85 1.5 109 1.0
 85 86 1.5 108 1.0
 86 215 1.0
 87 88 2.0 91 1.0 216 1.0
 88 89 1.5 111 1.0
 89 90 1.5 110 1.0
 90 216 1.0
 91
 92 112 1.0
 93 113 1.0
 94 114 1.0
 95 115 1.0
 96 116 1.0
 97 117 1.0
 98 118 1.0
 99 119 1.0
 100 120 1.0
 101 121 1.0
 102 122 1.0
 103 123 1.0
 104 124 1.0
 105 125 1.0
 106 126 1.0
 107 127 1.0
 108 128 1.0
 109 129 1.0
 110 130 1.0
 111 131 1.0
 112 113 1.0 132 1.0 135 1.0
 113 133 1.0 134 1.0
 114 115 1.0 138 1.0 139 1.0
 115 136 1.0 137 1.0
 116 117 1.0 140 1.0 143 1.0
 117 141 1.0 142 1.0
 118 119 1.0 145 1.0 147 1.0
 119 144 1.0 146 1.0
 120 121 1.0 148 1.0 149 1.0
 121 150 1.0 151 1.0
 122 123 1.0 152 1.0 155 1.0
 123 153 1.0 154 1.0
 124 125 1.0 166 1.0 169 1.0
 125 164 1.0 167 1.0
 126 127 1.0 168 1.0 170 1.0
 127 165 1.0 171 1.0
 128 129 1.0 156 1.0 158 1.0
 129 157 1.0 159 1.0
 130 131 1.0 160 1.0 161 1.0
 131 162 1.0 163 1.0
 132
 133
 134
 135
 136
 137
 138
 139
 140
 141
 142
 143
 144
 145
 146
 147
 148
 149
 150
 151
 152
 153
 154
 155
 156
 157
 158
 159
 160
 161
 162
 163
 164
 165
 166
 167
 168
 169
 170
 171
 172 173 1.5 206 1.0
 173 174 1.5 190 1.0
 174 175 1.5 191 1.0
 175 178 1.5 206 1.0
 176 177 1.0 190 1.0 197 1.0 198 1.0
 177 191 1.0 199 1.0 200 1.0
 178 179 1.0 182 2.0
 179 180 1.0 194 1.5
 180 181 1.0 195 1.5
 181 183 2.0 184 1.5
 182 183 2.0
 183
 184 185 1.5 205 1.0
 185 186 1.5 192 1.0
 186 187 2.0 193 1.0
 187 196 1.0 205 1.0
 188 189 1.0 192 1.0 201 1.0 202 1.0
 189 193 1.0 203 1.0 204 1.0
 190
 191
 192
 193
 194 217 1.0
 195 217 1.0
 196
 197
 198
 199
 200
 201
 202
 203
 204
 205
 206
 207
 208
 209
 210
 211
 212
 213
 214
 215
 216
 217
 218
 219
 220
 221
 222

