%chk=B-SeSeSe6.chk
%mem=600MW
# td=(nstates=10) b3lyp/lanl2dz 

B-SeSeSe6

0 1
 C                 17.23847800    0.82451500   -0.10836700
 C                 18.00491600   -0.40637300    0.01955500
 C                 19.49039700   -0.39025400    0.04067000
 C                 20.23250600    0.85629800   -0.07161000
 C                 19.43525400    2.00743000   -0.19440500
 C                 18.01375600    1.99226200   -0.21512400
 C                 15.78966400    0.80886100   -0.12266800
 N                 17.42600100   -1.61222700    0.12428500
 N                 20.09222500   -1.58294600    0.16823300
 H                 19.93071600    2.96549600   -0.27829000
 H                 17.50047900    2.93893300   -0.31849400
 C                 14.92982400    1.90765500   -0.19710900
 C                 13.52811200    1.62589600   -0.21010600
 C                 13.15051000    0.29098400   -0.13096800
 C                 24.32929000    0.42064900    0.08030000
 C                 23.92638200    1.73713800   -0.10478900
 C                 22.51955300    1.98210600   -0.18447000
 C                 21.68179900    0.87257200   -0.05030300
 C                  4.73065200   -0.76677100   -0.15658900
 C                  5.47563300    0.48149300   -0.22686800
 C                  6.96115500    0.49325300   -0.21877900
 C                  7.72528500   -0.74270200   -0.13681800
 C                  6.94763200   -1.91197900   -0.06762200
 C                  5.52616100   -1.92371400   -0.08288900
 C                  3.28167100   -0.77720500   -0.16768500
 N                  4.87601400    1.67942000   -0.30440800
 N                  7.54239100    1.70067000   -0.28799600
 H                  7.45934600   -2.86271300    0.00089100
 H                  5.02895900   -2.88327500   -0.03346000
 C                  2.43988300   -1.88968700   -0.09109700
 C                  1.03371800   -1.63518300   -0.13908800
 C                  0.63425300   -0.30753600   -0.23290100
 C                 11.81381200   -0.21359400   -0.12415500
 C                 11.43558300   -1.54880500   -0.05454000
 C                 10.03355700   -1.82952100   -0.06746700
 C                  9.17423600   -0.72937800   -0.12602700
 C                 -7.80042100    0.61932500   -0.32927500
 C                 -7.03938800   -0.62084000   -0.34418600
 C                 -5.55375500   -0.61261500   -0.34338900
 C                 -4.80625300    0.63638800   -0.34164100
 C                 -5.59917900    1.79738500   -0.33298900
 C                 -7.02070900    1.78917200   -0.32818200
 C                 -9.24951700    0.61092100   -0.31779900
 N                 -7.62331700   -1.82902600   -0.35721200
 N                 -4.95641900   -1.81410000   -0.34583200
 H                 -5.10020700    2.75728300   -0.32828400
 H                 -7.53046700    2.74344800   -0.32230900
 C                -10.10388800    1.71358200   -0.24129000
 C                -11.50728000    1.44103000   -0.26580600
 C                -11.89108200    0.10805900   -0.34985900
 C                 -0.71026200    0.17289100   -0.28522100
 C                 -1.10937800    1.50183900   -0.36205000
 C                 -2.51543600    1.75775300   -0.40073400
 C                 -3.35750500    0.64428100   -0.34386700
 C                -20.31271100   -0.92161500   -0.27890300
 C                -19.56508700    0.32417000   -0.21033000
 C                -18.08041700    0.33399300   -0.25243100
 C                -17.31976500   -0.90323900   -0.35664100
 C                -18.10046100   -2.07170200   -0.40774400
 C                -19.52141700   -2.07990300   -0.37235800
 C                -21.76134000   -0.93060300   -0.24024000
 N                -20.16107900    1.52181000   -0.10257900
 N                -17.49596400    1.53944400   -0.18104700
 H                -17.59182900   -3.02409200   -0.47481800
 H                -20.02144500   -3.03834100   -0.41653600
 C                -22.60585100   -2.03928800   -0.33797700
 C                -24.00927900   -1.78590600   -0.24318700
 C                -24.40318600   -0.46318500   -0.07877600
 C                -13.23012300   -0.38874500   -0.38287200
 C                -13.61426200   -1.72057800   -0.48352900
 C                -15.01739700   -1.99322400   -0.50033500
 C                -15.87182600   -0.89281600   -0.38908900
 C                 29.77311000   -0.47866400    0.35079400
 C                 30.51476900    0.76876700    0.22474600
 C                 31.99945800    0.78894300    0.25394500
 C                 32.76444400   -0.43686000    0.40761400
 C                 31.99521700   -1.60255500    0.52625800
 C                 30.57053100   -1.62442200    0.49496000
 C                 28.32317900   -0.49604900    0.32196300
 N                 29.91152400    1.95737900    0.07595100
 N                 32.57608900    1.99590000    0.13273200
 H                 32.51093000   -2.54608000    0.64828200
 H                 30.07840700   -2.58313500    0.58890700
 C                 27.48687800   -1.60593300    0.45905700
 C                 26.07956100   -1.36334200    0.37559100
 C                 25.67559800   -0.04786700    0.18640800
 C                 36.82397200    0.10512400    0.46009400
 C                 36.49907000   -1.22019800    0.56245900
 C                 35.08050000   -1.51336300    0.54111000
 C                 34.22020500   -0.42463800    0.43485800
 H                 37.82483300    0.51412100    0.45846500
 O                -24.96452800   -2.81426100   -0.32312100
 O                -22.12330200   -3.35195100   -0.50754700
 O                -15.49093700   -3.31494100   -0.60871700
 O                -12.65078000   -2.74199000   -0.57522400
 O                -12.47089800    2.46335700   -0.19431100
 O                 -9.63121100    3.03793200   -0.15442200
 O                 -3.00325100    3.07687700   -0.47943900
 O                 -0.15747400    2.53684300   -0.41042100
 O                  0.08217400   -2.67007100   -0.08112800
 O                  2.92829500   -3.20687700    0.01443300
 O                  9.56611900   -3.15711400   -0.00819700
 O                 12.40335300   -2.56808900    0.01267900
 O                 12.55991200    2.64408800   -0.28626600
 O                 15.39631900    3.23476800   -0.27004900
 O                 22.02768700    3.28860800   -0.37387800
 O                 24.87421700    2.77041900   -0.21842600
 O                 25.13307200   -2.39834700    0.49054700
 O                 27.98047400   -2.91016900    0.65491600
 O                 34.62100000   -2.84008000    0.64130700
 O                 37.46981200   -2.23575300    0.66032200
 C                -24.41243100   -4.16275900   -0.12309500
 C                -23.14097700   -4.31704200   -0.95742100
 C                -14.48240400   -4.28688700   -1.06446100
 C                -13.17716700   -4.08562800   -0.29496700
 C                -11.94335800    3.80500800   -0.48318900
 C                -10.64113000    4.01342800    0.28961700
 C                 -1.99960700    4.07085800   -0.89621500
 C                 -0.70512700    3.86746200   -0.10919300
 C                  0.63299800   -4.00421900   -0.36006100
 C                  1.92230400   -4.19525900    0.43839600
 C                 10.58794600   -4.17573500   -0.30338500
 C                 11.87403800   -3.86371200    0.46176200
 C                 13.08828500    3.93591000   -0.74711500
 C                 14.37396500    4.25580100    0.01546500
 C                 23.03440400    4.25411500   -0.84660800
 C                 24.31613900    4.11677700   -0.02531900
 C                 25.69453700   -3.74275600    0.29596600
 C                 26.97370700   -3.87916600    1.12139600
 C                 35.65569900   -3.86259300    0.40152400
 C                 36.93201800   -3.50696500    1.16356300
 H                -25.19491400   -4.85304200   -0.44815500
 H                -22.68718700   -5.30223100   -0.82143100
 H                -23.35485200   -4.14600500   -2.02068400
 H                -24.19874100   -4.31237600    0.94350800
 H                -13.34180100   -4.19420200    0.78539600
 H                -12.40225300   -4.78140200   -0.62660400
 H                -14.91827000   -5.27030100   -0.86952000
 H                -14.31774400   -4.15610800   -2.14208400
 H                -11.77443400    3.90427900   -1.56373600
 H                -10.20520900    4.99535000    0.08743500
 H                -10.80965700    3.89252200    1.36784300
 H                -12.72015000    4.50308400   -0.16084300
 H                  0.06692200    4.57969300   -0.41131600
 H                 -1.81545800    3.96703600   -1.97363900
 H                 -0.88949700    3.94922000    0.97033200
 H                 -2.45056600    5.04435700   -0.68635100
 H                  0.82475900   -4.10089400   -1.43706800
 H                 -0.14035700   -4.71294000   -0.05306700
 H                  2.37518900   -5.17143800    0.24571800
 H                  1.73043400   -4.07605800    1.51291300
 H                 10.15042900   -5.12604700    0.01378500
 H                 11.68370200   -3.82404200    1.54265700
 H                 12.65846500   -4.59385400    0.24692000
 H                 10.77852800   -4.19227000   -1.38458700
 H                 24.92128000   -4.43758500    0.63335900
 H                 26.76638600   -3.69897800    2.18440300
 H                 25.90124400   -3.90030000   -0.77107200
 H                 27.43518500   -4.86172500    0.99189000
 H                 35.22024300   -4.80096200    0.75532400
 H                 35.85565200   -3.92425400   -0.67640300
 H                 36.72742000   -3.42176800    2.23992200
 H                 37.71778400   -4.24772900    0.99295600
 H                 14.81126300    5.20324800   -0.31042600
 H                 25.09005600    4.80893800   -0.36665500
 H                 13.27880700    3.88650300   -1.82757200
 H                 14.18327000    4.28227600    1.09641900
 H                 23.23758900    4.07136900   -1.91003300
 H                 12.30326900    4.66740300   -0.53914800
 H                 22.57590800    5.23812100   -0.71754300
 H                 24.11337900    4.27682000    1.04204500
 C                -25.74305400    0.01149900    0.05020100
 C                -26.13901000    1.33482600    0.22930600
 C                -27.53884300    1.57746700    0.34907000
 C                -28.36602500    0.45650900    0.28505400
 C                -25.73522300    3.61968400    0.86822400
 C                -27.09520400    3.94141500    0.24347600
 C                -29.79001300    0.49130200    0.38629300
 C                -30.65906700   -0.70742200    0.31076500
 C                -32.17117700   -0.62363100    0.43047100
 C                -32.87499200    0.65996600    0.63033900
 C                -30.63748500    1.57666200    0.56824200
 C                -31.89711300    1.64384400    0.66817800
 C                -34.29870100    0.79373500    0.75485600
 C                -34.97764700    1.99187200    0.93560200
 C                -36.41654500    1.90068400    1.03660700
 C                -36.92904600    0.63351800    0.92879000
 C                -35.18241100    4.39036400    0.88416600
 C                -36.45700600    4.20463200    1.71048000
 O                -25.19948500    2.37930300    0.28094000
 O                -28.05753000    2.86300600    0.53644100
 O                -34.30391300    3.21405000    1.03140100
 O                -37.21613200    3.04396000    1.21491800
 N                -30.15897000   -1.93344400    0.13699200
 N                -32.82352500   -1.78904300    0.34781900
 H                -37.97456200    0.36391600    0.98237400
 H                -25.82697200    3.49271400    1.95506300
 H                -24.99760500    4.39391500    0.64294500
 H                -27.53247100    4.84511000    0.67540800
 H                -27.00305800    4.05232500   -0.84486300
 H                -34.59050900    5.23761200    1.23977600
 H                -35.42668900    4.52281500   -0.17810000
 H                -36.21017800    4.05431100    2.77047600
 H                -37.12835300    5.06065300    1.60321300
 Se                35.27364400    1.21129200    0.31581300
 Se                27.24131200    1.10684000    0.07823800
 Se                22.76205500   -0.73296300    0.18376000
 Se                14.74034200   -0.83153600   -0.02967300
 Se                10.22437300    0.91124300   -0.20457000
 Se                 2.20581400    0.84377200   -0.29070800
 Se                -2.28195400   -0.97916200   -0.25601100
 Se               -10.30593000   -1.02431600   -0.41219300
 Se               -14.81424100    0.74118200   -0.27632600
 Se               -22.82945400    0.68601600   -0.02925400
 Se               -27.31244300   -1.14901800    0.02265800
 Se               -35.55793900   -0.67739700    0.67488800
 Se                31.22886700    3.28760500   -0.04360400
 Se                18.77127500   -2.91204400    0.27315800
 Se                 6.19929000    3.00836400   -0.37630700
 Se                -6.28241400   -3.14221100   -0.36002200
 Se               -18.83413500    2.84779000   -0.04466000
 Se               -31.57357100   -3.17130500    0.10327500

 1 2 1.0 6 1.5 7 1.0
 2 3 1.0 8 1.5
 3 4 1.0 9 1.5
 4 5 1.5 18 1.0
 5 6 1.5 10 1.0
 6 11 1.0
 7 12 1.5 208 1.0
 8 218 1.0
 9 218 1.0
 10
 11
 12 13 1.5 105 1.0
 13 14 1.5 104 1.0
 14 33 1.5 208 1.0
 15 16 1.5 86 1.5 207 1.0
 16 17 1.5 107 1.0
 17 18 1.5 106 1.0
 18 207 1.0
 19 20 1.0 24 1.5 25 1.0
 20 21 1.0 26 1.5
 21 22 1.0 27 1.5
 22 23 1.5 36 1.0
 23 24 1.5 28 1.0
 24 29 1.0
 25 30 1.5 210 1.0
 26 219 1.0
 27 219 1.0
 28
 29
 30 31 1.5 101 1.0
 31 32 1.5 100 1.0
 32 51 1.5 210 1.0
 33 34 1.5 209 1.0
 34 35 1.5 103 1.0
 35 36 1.5 102 1.0
 36 209 1.0
 37 38 1.0 42 1.5 43 1.0
 38 39 1.0 44 1.5
 39 40 1.0 45 1.5
 40 41 1.5 54 1.0
 41 42 1.5 46 1.0
 42 47 1.0
 43 48 1.5 212 1.0
 44 220 1.0
 45 220 1.0
 46
 47
 48 49 1.5 97 1.0
 49 50 1.5 96 1.0
 50 69 1.5 212 1.0
 51 52 1.5 211 1.0
 52 53 1.5 99 1.0
 53 54 1.5 98 1.0
 54 211 1.0
 55 56 1.0 60 1.5 61 1.0
 56 57 1.0 62 1.5
 57 58 1.0 63 1.5
 58 59 1.5 72 1.0
 59 60 1.5 64 1.0
 60 65 1.0
 61 66 1.5 214 1.0
 62 221 1.0
 63 221 1.0
 64
 65
 66 67 1.5 93 1.0
 67 68 1.5 92 1.0
 68 172 1.5 214 1.0
 69 70 1.5 213 1.0
 70 71 1.5 95 1.0
 71 72 1.5 94 1.0
 72 213 1.0
 73 74 1.0 78 1.5 79 1.0
 74 75 1.0 80 1.5
 75 76 1.0 81 1.5
 76 77 1.5 90 1.0
 77 78 1.5 82 1.0
 78 83 1.0
 79 84 1.5 206 1.0
 80 217 1.0
 81 217 1.0
 82
 83
 84 85 1.5 109 1.0
 85 86 1.5 108 1.0
 86 206 1.0
 87 88 2.0 91 1.0 205 1.0
 88 89 1.0 111 1.0
 89 90 1.5 110 1.0
 90 205 1.0
 91
 92 112 1.0
 93 113 1.0
 94 114 1.0
 95 115 1.0
 96 116 1.0
 97 117 1.0
 98 118 1.0
 99 119 1.0
 100 120 1.0
 101 121 1.0
 102 122 1.0
 103 123 1.0
 104 124 1.0
 105 125 1.0
 106 126 1.0
 107 127 1.0
 108 128 1.0
 109 129 1.0
 110 130 1.0
 111 131 1.0
 112 113 1.0 132 1.0 135 1.0
 113 133 1.0 134 1.0
 114 115 1.0 138 1.0 139 1.0
 115 136 1.0 137 1.0
 116 117 1.0 140 1.0 143 1.0
 117 141 1.0 142 1.0
 118 119 1.0 145 1.0 147 1.0
 119 144 1.0 146 1.0
 120 121 1.0 148 1.0 149 1.0
 121 150 1.0 151 1.0
 122 123 1.0 152 1.0 155 1.0
 123 153 1.0 154 1.0
 124 125 1.0 166 1.0 169 1.0
 125 164 1.0 167 1.0
 126 127 1.0 168 1.0 170 1.0
 127 165 1.0 171 1.0
 128 129 1.0 156 1.0 158 1.0
 129 157 1.0 159 1.0
 130 131 1.0 160 1.0 161 1.0
 131 162 1.0 163 1.0
 132
 133
 134
 135
 136
 137
 138
 139
 140
 141
 142
 143
 144
 145
 146
 147
 148
 149
 150
 151
 152
 153
 154
 155
 156
 157
 158
 159
 160
 161
 162
 163
 164
 165
 166
 167
 168
 169
 170
 171
 172 173 1.5 215 1.0
 173 174 1.5 190 1.0
 174 175 1.5 191 1.0
 175 178 1.5 215 1.0
 176 177 1.0 190 1.0 197 1.0 198 1.0
 177 191 1.0 199 1.0 200 1.0
 178 179 1.0 182 1.5
 179 180 1.0 194 1.5
 180 181 1.0 195 1.5
 181 183 1.5 184 1.5
 182 183 2.0
 183
 184 185 1.5 216 1.0
 185 186 1.5 192 1.0
 186 187 2.0 193 1.0
 187 196 1.0 216 1.0
 188 189 1.0 192 1.0 201 1.0 202 1.0
 189 193 1.0 203 1.0 204 1.0
 190
 191
 192
 193
 194 222 1.0
 195 222 1.0
 196
 197
 198
 199
 200
 201
 202
 203
 204
 205
 206
 207
 208
 209
 210
 211
 212
 213
 214
 215
 216
 217
 218
 219
 220
 221
 222

