%chk=B-SeSSe6.chk
%mem=600MW
# td=(nstates=10) b3lyp/lanl2dz 

B-SeSSe6

0 1
 C                 17.21310600    0.90375600   -0.11337900
 C                 17.98954300   -0.31495600    0.03130400
 C                 19.46761200   -0.29262600    0.05228000
 C                 20.20992800    0.94843800   -0.07544900
 C                 19.40669800    2.09494400   -0.21348400
 C                 17.98491800    2.07361000   -0.23475800
 C                 15.76504300    0.87734200   -0.12888000
 N                 17.44460600   -1.53632600    0.15510100
 N                 20.04553600   -1.49666100    0.19734200
 H                 19.89828900    3.05395100   -0.30963400
 H                 17.46777500    3.01681700   -0.35071300
 C                 14.89732200    1.96841100   -0.21854400
 C                 13.49829200    1.67432800   -0.22878200
 C                 13.13254000    0.33719500   -0.13241400
 C                 24.30392300    0.51513800    0.07953500
 C                 23.90186100    1.82975000   -0.12062900
 C                 22.49527200    2.07456000   -0.20196400
 C                 21.65859200    0.96631100   -0.05400500
 C                  4.72162700   -0.77658000   -0.15809800
 C                  5.46702500    0.46681400   -0.24011400
 C                  6.94512700    0.48445900   -0.22964300
 C                  7.71907400   -0.74030400   -0.13248400
 C                  6.94464500   -1.91224200   -0.05208400
 C                  5.52287500   -1.92981500   -0.07022800
 C                  3.27325500   -0.78821500   -0.17197800
 N                  4.89155100    1.67701000   -0.33299500
 N                  7.49265100    1.70818100   -0.31324800
 H                  7.45999300   -2.86021900    0.02795100
 H                  5.02933800   -2.89084200   -0.01140500
 C                  2.43215200   -1.90027200   -0.08742400
 C                  1.02638300   -1.64514200   -0.13894200
 C                  0.62829300   -0.31780700   -0.24331000
 C                 11.80025400   -0.17849000   -0.12041500
 C                 11.43380100   -1.51605300   -0.03396200
 C                 10.03443700   -1.80904700   -0.04496900
 C                  9.16727600   -0.71636200   -0.11889400
 C                 -7.80572300    0.60009700   -0.35140900
 C                 -7.03538800   -0.63041400   -0.36281600
 C                 -5.55712200   -0.61722700   -0.36168800
 C                 -4.80869100    0.62730500   -0.36250800
 C                 -5.60684600    1.78597000   -0.35736600
 C                 -7.02872300    1.77296600   -0.35291400
 C                 -9.25415600    0.58231700   -0.34015200
 N                 -7.58618700   -1.85562900   -0.37281500
 N                 -4.98447000   -1.83224200   -0.36138500
 H                 -5.11113600    2.74766900   -0.35513100
 H                 -7.54167200    2.72564900   -0.34941500
 C                -10.11551200    1.67907800   -0.26269300
 C                -11.51658500    1.39561300   -0.28634700
 C                -11.88970500    0.05961000   -0.37133500
 C                 -0.71580400    0.16296100   -0.30017800
 C                 -1.11337000    1.49192100   -0.38559100
 C                 -2.51899500    1.74887800   -0.42647500
 C                 -3.36053200    0.63570300   -0.36369900
 C                -20.30373600   -1.01716300   -0.29380900
 C                -19.55422300    0.22337100   -0.22039600
 C                -18.07695100    0.23740800   -0.26387700
 C                -17.30788600   -0.99003700   -0.37475000
 C                -18.08672200   -2.16073400   -0.43127000
 C                -19.50802600   -2.17305600   -0.39450100
 C                -21.75175300   -1.02573100   -0.25296500
 N                -20.12455300    1.43429300   -0.10531700
 N                -17.52469000    1.45901600   -0.18471900
 H                -17.57554000   -3.11147400   -0.50375500
 H                -20.00545300   -3.13272700   -0.44328000
 C                -22.59685200   -2.13317100   -0.35549900
 C                -23.99959700   -1.87775400   -0.25791600
 C                -24.39062600   -0.55499600   -0.08631100
 C                -13.22490500   -0.44713800   -0.40398300
 C                -13.59861700   -1.78179100   -0.50723800
 C                -14.99949900   -2.06510100   -0.52303400
 C                -15.86063500   -0.97070000   -0.40794000
 C                 29.74487800   -0.38109900    0.35344800
 C                 30.48663900    0.86037600    0.21076600
 C                 31.96396900    0.88651000    0.23703400
 C                 32.73914600   -0.32697400    0.40580100
 C                 31.97326200   -1.49437200    0.54084900
 C                 30.54832500   -1.52209200    0.51169900
 C                 28.29553700   -0.40006600    0.32633300
 N                 29.90720000    2.06026200    0.04553700
 N                 32.50657800    2.10844500    0.09545500
 H                 32.49276100   -2.43427800    0.67461100
 H                 30.05999200   -2.48146000    0.61892100
 C                 27.46034500   -1.50853300    0.47800200
 C                 26.05323800   -1.26604100    0.39376600
 C                 25.65009700    0.04751000    0.18952700
 C                 36.79240700    0.24634000    0.44397700
 C                 36.47818100   -1.08012300    0.56610000
 C                 35.06212700   -1.38468400    0.55142800
 C                 34.19417100   -0.30378500    0.43094300
 H                 37.78964500    0.66381000    0.43484200
 O                -24.95675100   -2.90294000   -0.34163500
 O                -22.11605900   -3.44475300   -0.53238700
 O                -15.46386000   -3.38908500   -0.63416100
 O                -12.62745400   -2.79448100   -0.60206800
 O                -12.48812700    2.40912200   -0.21315000
 O                 -9.65244500    3.00602000   -0.17510200
 O                 -3.00626100    3.06694200   -0.51328600
 O                 -0.16047200    2.52455900   -0.43979900
 O                  0.07403400   -2.67776800   -0.07432200
 O                  2.92030200   -3.21587400    0.02911000
 O                  9.57762900   -3.13875500    0.03079800
 O                 12.41021600   -2.52484200    0.04769800
 O                 12.52137800    2.68181100   -0.31911300
 O                 15.35307400    3.29747800   -0.30862800
 O                 22.00318200    3.37794700   -0.40628900
 O                 24.85014200    2.86002000   -0.24686900
 O                 25.10629000   -2.29796500    0.52190700
 O                 27.95421600   -2.80967800    0.68847000
 O                 34.61211300   -2.71234600    0.67125800
 O                 37.45656200   -2.08616100    0.67735100
 C                -24.40704000   -4.25403300   -0.14894900
 C                -23.13641600   -4.40678600   -0.98489700
 C                -14.44785500   -4.35333900   -1.09183600
 C                -13.14295000   -4.14333700   -0.32398800
 C                -11.97184000    3.75602300   -0.50044800
 C                -10.66998300    3.97387700    0.27050500
 C                 -2.00110800    4.05822400   -0.93524300
 C                 -0.70656400    3.85833100   -0.14734300
 C                  0.62396600   -4.01491800   -0.34310100
 C                  1.91253400   -4.20146900    0.45769600
 C                 10.60929200   -4.15325800   -0.24752900
 C                 11.89188200   -3.81920900    0.51431500
 C                 13.03844800    3.97238100   -0.79741100
 C                 14.32103900    4.31412900   -0.03900800
 C                 23.01060000    4.33886700   -0.88898600
 C                 24.29323600    4.20933000   -0.06775700
 C                 25.66640400   -3.64538400    0.34115200
 C                 26.94696300   -3.77391000    1.16578200
 C                 35.65466000   -3.73131000    0.44781200
 C                 36.92915000   -3.35329200    1.20213200
 H                -25.19122600   -4.94074800   -0.47715000
 H                -22.68413800   -5.39314200   -0.85292900
 H                -23.35040700   -4.23116600   -2.04730600
 H                -24.19360000   -4.40912200    0.91683500
 H                -13.30428600   -4.25517600    0.75644900
 H                -12.36300200   -4.83189700   -0.65855800
 H                -14.87599200   -5.34007700   -0.89696000
 H                -14.28614500   -4.22030100   -2.16954700
 H                -11.80625300    3.85817500   -1.58115500
 H                -10.24202000    4.95910100    0.06777700
 H                -10.83546700    3.85126300    1.34892300
 H                -12.75387400    4.44680000   -0.17537100
 H                  0.06639000    4.56720500   -0.45466700
 H                 -1.81771500    3.94841800   -2.01211400
 H                 -0.88976600    3.94714600    0.93173400
 H                 -2.45121500    5.03309200   -0.73031400
 H                  0.81573000   -4.11922300   -1.41930500
 H                 -0.15039000   -4.72031800   -0.03135800
 H                  2.36504900   -5.17894000    0.27116400
 H                  1.72015300   -4.07559300    1.53127600
 H                 10.17940400   -5.10227600    0.08343400
 H                 11.70085500   -3.76587700    1.59441300
 H                 12.68301500   -4.54498100    0.30999900
 H                 10.80095100   -4.18418700   -1.32813900
 H                 24.89305300   -4.33546300    0.68764800
 H                 26.74185800   -3.58304100    2.22727000
 H                 25.87041500   -3.81436500   -0.72456900
 H                 27.40775700   -4.75783300    1.04503400
 H                 35.22648400   -4.66666800    0.81797000
 H                 35.85351800   -3.80951700   -0.62917200
 H                 36.72570400   -3.25195400    2.27725400
 H                 37.72034200   -4.09057600    1.04225300
 H                 14.75046800    5.26026100   -0.37868300
 H                 25.06739900    4.89677900   -0.41763300
 H                 13.22906100    3.90962100   -1.87706900
 H                 14.12992300    4.35470300    1.04134800
 H                 23.21219500    4.14568600   -1.95077800
 H                 12.24679700    4.69929100   -0.59925700
 H                 22.55259000    5.32414000   -0.76875100
 H                 24.09256500    4.38064500    0.99816500
 C                -25.72938700   -0.07864000    0.04686600
 C                -26.12174600    1.24469100    0.23330300
 C                -27.52068600    1.49000300    0.35666800
 C                -28.34950400    0.37063900    0.28815600
 C                -25.71046600    3.52536200    0.88216900
 C                -27.07102300    3.85325800    0.26193600
 C                -29.77308700    0.40645200    0.39162100
 C                -30.64441300   -0.78596500    0.31123500
 C                -32.14738300   -0.70635800    0.43230300
 C                -32.85926600    0.56781800    0.64014400
 C                -30.62301900    1.49023400    0.58107000
 C                -31.88253500    1.55436800    0.68274600
 C                -34.28324200    0.69351500    0.76650800
 C                -34.96760700    1.88744200    0.95436200
 C                -36.40583500    1.78826000    1.05561500
 C                -36.91170700    0.51889500    0.94087200
 C                -35.18419400    4.28515000    0.91731800
 C                -36.45743200    4.08780100    1.74296800
 O                -25.17946300    2.28545500    0.28855100
 O                -28.03587900    2.77523400    0.55110100
 O                -34.29985700    3.11168300    1.05612900
 O                -37.21096000    2.92597300    1.24081300
 N                -30.17147400   -2.02378300    0.13040100
 N                -32.76990600   -1.88920600    0.33947200
 H                -37.95556100    0.24292200    0.99347300
 H                -25.79938200    3.39395200    1.96863000
 H                -24.97114400    4.29815800    0.65797100
 H                -27.50532000    4.75551500    0.69967800
 H                -26.98140600    3.96953200   -0.82596800
 H                -34.59604800    5.13259800    1.27848400
 H                -35.42915000    4.42335000   -0.14397700
 H                -36.20977600    3.93242600    2.80199300
 H                -37.13327400    4.94084400    1.64084000
 Se                35.23478900    1.33808800    0.28672400
 Se                27.21373700    1.20003400    0.06464200
 Se                22.73876800   -0.63642500    0.19898300
 Se                14.72928700   -0.77038400   -0.01514800
 Se                10.20396900    0.93179000   -0.21686000
 Se                 2.19811600    0.83205100   -0.30962300
 Se                -2.28592400   -0.98774300   -0.26522300
 Se               -10.29847200   -1.06061400   -0.43551500
 Se               -14.81479000    0.67062800   -0.29190500
 Se               -22.81730100    0.59121700   -0.03210800
 Se               -27.29918200   -1.23583300    0.01568600
 Se               -35.53532600   -0.78340300    0.67887800
 S                 31.18829600    3.27725500   -0.08088900
 S                 18.76098300   -2.71299200    0.30870400
 S                  6.17846100    2.89345100   -0.41018100
 S                 -6.27442900   -3.04786600   -0.37200000
 S                -18.83281300    2.64692100   -0.04980000
 S                -31.54347800   -3.15008200    0.10094900

 1 2 1.0 6 1.5 7 1.0
 2 3 1.0 8 1.5
 3 4 1.0 9 1.5
 4 5 1.5 18 1.0
 5 6 1.5 10 1.0
 6 11 1.0
 7 12 1.5 208 1.0
 8 218 1.0
 9 218 1.0
 10
 11
 12 13 1.5 105 1.0
 13 14 1.5 104 1.0
 14 33 1.5 208 1.0
 15 16 1.5 86 1.5 207 1.0
 16 17 1.5 107 1.0
 17 18 1.5 106 1.0
 18 207 1.0
 19 20 1.0 24 1.5 25 1.0
 20 21 1.0 26 1.5
 21 22 1.0 27 1.5
 22 23 1.5 36 1.0
 23 24 1.5 28 1.0
 24 29 1.0
 25 30 1.5 210 1.0
 26 219 1.0
 27 219 1.0
 28
 29
 30 31 1.5 101 1.0
 31 32 1.5 100 1.0
 32 51 1.5 210 1.0
 33 34 1.5 209 1.0
 34 35 1.5 103 1.0
 35 36 1.5 102 1.0
 36 209 1.0
 37 38 1.0 42 1.5 43 1.0
 38 39 1.0 44 1.5
 39 40 1.0 45 1.5
 40 41 1.5 54 1.0
 41 42 1.5 46 1.0
 42 47 1.0
 43 48 1.5 212 1.0
 44 220 1.0
 45 220 1.0
 46
 47
 48 49 1.5 97 1.0
 49 50 1.5 96 1.0
 50 69 1.5 212 1.0
 51 52 1.5 211 1.0
 52 53 1.5 99 1.0
 53 54 1.5 98 1.0
 54 211 1.0
 55 56 1.0 60 1.5 61 1.0
 56 57 1.0 62 1.5
 57 58 1.0 63 1.5
 58 59 1.5 72 1.0
 59 60 1.5 64 1.0
 60 65 1.0
 61 66 1.5 214 1.0
 62 221 1.0
 63 221 1.0
 64
 65
 66 67 1.5 93 1.0
 67 68 1.5 92 1.0
 68 172 1.5 214 1.0
 69 70 1.5 213 1.0
 70 71 1.5 95 1.0
 71 72 1.5 94 1.0
 72 213 1.0
 73 74 1.0 78 1.5 79 1.0
 74 75 1.0 80 1.5
 75 76 1.0 81 1.5
 76 77 1.5 90 1.0
 77 78 1.5 82 1.0
 78 83 1.0
 79 84 1.5 206 1.0
 80 217 1.0
 81 217 1.0
 82
 83
 84 85 1.5 109 1.0
 85 86 1.5 108 1.0
 86 206 1.0
 87 88 2.0 91 1.0 205 1.0
 88 89 1.0 111 1.0
 89 90 1.5 110 1.0
 90 205 1.0
 91
 92 112 1.0
 93 113 1.0
 94 114 1.0
 95 115 1.0
 96 116 1.0
 97 117 1.0
 98 118 1.0
 99 119 1.0
 100 120 1.0
 101 121 1.0
 102 122 1.0
 103 123 1.0
 104 124 1.0
 105 125 1.0
 106 126 1.0
 107 127 1.0
 108 128 1.0
 109 129 1.0
 110 130 1.0
 111 131 1.0
 112 113 1.0 132 1.0 135 1.0
 113 133 1.0 134 1.0
 114 115 1.0 138 1.0 139 1.0
 115 136 1.0 137 1.0
 116 117 1.0 140 1.0 143 1.0
 117 141 1.0 142 1.0
 118 119 1.0 145 1.0 147 1.0
 119 144 1.0 146 1.0
 120 121 1.0 148 1.0 149 1.0
 121 150 1.0 151 1.0
 122 123 1.0 152 1.0 155 1.0
 123 153 1.0 154 1.0
 124 125 1.0 166 1.0 169 1.0
 125 164 1.0 167 1.0
 126 127 1.0 168 1.0 170 1.0
 127 165 1.0 171 1.0
 128 129 1.0 156 1.0 158 1.0
 129 157 1.0 159 1.0
 130 131 1.0 160 1.0 161 1.0
 131 162 1.0 163 1.0
 132
 133
 134
 135
 136
 137
 138
 139
 140
 141
 142
 143
 144
 145
 146
 147
 148
 149
 150
 151
 152
 153
 154
 155
 156
 157
 158
 159
 160
 161
 162
 163
 164
 165
 166
 167
 168
 169
 170
 171
 172 173 1.5 215 1.0
 173 174 1.5 190 1.0
 174 175 1.5 191 1.0
 175 178 1.5 215 1.0
 176 177 1.0 190 1.0 197 1.0 198 1.0
 177 191 1.0 199 1.0 200 1.0
 178 179 1.0 182 1.5
 179 180 1.0 194 1.5
 180 181 1.0 195 1.5
 181 183 1.5 184 1.5
 182 183 2.0
 183
 184 185 1.5 216 1.0
 185 186 1.5 192 1.0
 186 187 2.0 193 1.0
 187 196 1.0 216 1.0
 188 189 1.0 192 1.0 201 1.0 202 1.0
 189 193 1.0 203 1.0 204 1.0
 190
 191
 192
 193
 194 222 1.0
 195 222 1.0
 196
 197
 198
 199
 200
 201
 202
 203
 204
 205
 206
 207
 208
 209
 210
 211
 212
 213
 214
 215
 216
 217
 218
 219
 220
 221
 222

