%chk=B-SeTeSe6.chk
%mem=600MW
# td=(nstates=10) b3lyp/lanl2dz 

B-SeTeSe6

0 1
 C                 17.25575200    0.76092000   -0.07825000
 C                 18.01010500   -0.48299900    0.04928300
 C                 19.50664100   -0.47338900    0.06488300
 C                 20.24662200    0.77908600   -0.05524000
 C                 19.45569200    1.93318000   -0.17670800
 C                 18.03417100    1.92449900   -0.19070100
 C                 15.80680400    0.75412600   -0.08647600
 N                 17.39209600   -1.66635300    0.15587100
 N                 20.13753700   -1.64828100    0.19204800
 H                 19.95518500    2.88876300   -0.26501500
 H                 17.52460700    2.87322600   -0.29360600
 C                 14.95232000    1.85747100   -0.15972400
 C                 13.54862000    1.58512600   -0.16812000
 C                 13.16205000    0.25280400   -0.08634500
 C                 24.34533300    0.33176500    0.07533000
 C                 23.94442000    1.64906100   -0.10897800
 C                 22.53764600    1.89734700   -0.18132100
 C                 21.69613400    0.79108000   -0.04168900
 C                  4.73686800   -0.76144500   -0.09889500
 C                  5.47925900    0.49409000   -0.16377900
 C                  6.97577800    0.50029900   -0.15738800
 C                  7.72819000   -0.74867100   -0.08165900
 C                  6.94782500   -1.91488200   -0.01682100
 C                  5.52648400   -1.92128200   -0.03135900
 C                  3.28785100   -0.76897400   -0.10995100
 N                  4.85012400    1.67453400   -0.23347900
 N                  7.59554100    1.68604200   -0.22010600
 H                  7.45613300   -2.86775300    0.04713300
 H                  5.02569400   -2.87920500    0.01339200
 C                  2.44280100   -1.87995400   -0.04358200
 C                  1.03690600   -1.62333600   -0.09017000
 C                  0.63883600   -0.29431700   -0.17141800
 C                 11.82224000   -0.24334700   -0.07603400
 C                 11.43534900   -1.57619400   -0.00614400
 C                 10.03148100   -1.84796900   -0.01703200
 C                  9.17723700   -0.74344000   -0.07285200
 C                 -7.79347100    0.65000900   -0.28084600
 C                 -7.04328000   -0.60198500   -0.30624400
 C                 -5.54670500   -0.59824100   -0.29735500
 C                 -4.80262300    0.65816300   -0.28101900
 C                 -5.59047000    1.82101100   -0.26354000
 C                 -7.01187500    1.81699800   -0.26418800
 C                 -9.24264800    0.64831100   -0.27539400
 N                 -7.66479500   -1.78828700   -0.33550300
 N                 -4.91901600   -1.78137000   -0.30693200
 H                 -5.08857900    2.77926300   -0.24721600
 H                 -7.51892800    2.77263100   -0.25028200
 C                -10.09329600    1.75375600   -0.19339500
 C                -11.49806300    1.48900900   -0.22709400
 C                -11.88886100    0.15886300   -0.32470300
 C                 -0.70495400    0.18841200   -0.22024000
 C                 -1.10297200    1.51858800   -0.28215100
 C                 -2.50881800    1.77621400   -0.32074200
 C                 -3.35384500    0.66398400   -0.27914100
 C                -20.31453300   -0.83647000   -0.30060800
 C                -19.57100100    0.41597000   -0.21437100
 C                -18.07527200    0.42212100   -0.25106200
 C                -17.32478200   -0.82587800   -0.36624600
 C                -18.10687000   -1.99109800   -0.43305800
 C                -19.52779600   -1.99556700   -0.40344100
 C                -21.76332000   -0.84424600   -0.26756100
 N                -20.19805600    1.59399300   -0.09622100
 N                -17.45373000    1.60526600   -0.16683500
 H                -17.60052600   -2.94408000   -0.50839400
 H                -20.03048800   -2.95196800   -0.45999000
 C                -22.60978100   -1.95055500   -0.37763800
 C                -24.01341900   -1.69734300   -0.28462600
 C                -24.40743100   -0.37596200   -0.10965000
 C                -13.23019800   -0.33076100   -0.36894100
 C                -13.62120200   -1.65955900   -0.48407700
 C                -15.02573600   -1.92446100   -0.51052200
 C                -15.87667400   -0.82172400   -0.39266800
 C                 29.79049400   -0.58458900    0.31228000
 C                 30.53082200    0.66780900    0.17089300
 C                 32.02675400    0.68044500    0.18929800
 C                 32.77887700   -0.55816200    0.34674200
 C                 32.00611300   -1.71829200    0.47944200
 C                 30.58112600   -1.73307900    0.45861000
 C                 28.34026800   -0.59681200    0.29361700
 N                 29.89887200    1.83822400    0.01981300
 N                 32.64298100    1.86397900    0.05840300
 H                 32.51800500   -2.66355700    0.60448000
 H                 30.08475400   -2.68855000    0.56254500
 C                 27.49996000   -1.70283400    0.43943900
 C                 26.09268700   -1.45662400    0.36420200
 C                 25.69089400   -0.14049400    0.17433700
 C                 36.84374300   -0.04559500    0.36485200
 C                 36.51008400   -1.36731700    0.48108100
 C                 35.08911600   -1.65031600    0.47243600
 C                 34.23503900   -0.55699800    0.36306000
 H                 37.84810200    0.35494300    0.35248400
 O                -24.96853300   -2.72651100   -0.37641400
 O                -22.12720900   -3.26293700   -0.55683800
 O                -15.50591200   -3.24345500   -0.63381600
 O                -12.66314400   -2.68733700   -0.58074200
 O                -12.45606700    2.51804400   -0.15142200
 O                 -9.61373900    3.07568800   -0.09335200
 O                 -2.99551500    3.09753500   -0.38430900
 O                 -0.15050500    2.55539200   -0.31644100
 O                  0.08446900   -2.65967600   -0.04295600
 O                  2.92966700   -3.19958700    0.05015700
 O                  9.55557800   -3.17355700    0.04177400
 O                 12.39633800   -2.60373300    0.05907100
 O                 12.58745600    2.61181800   -0.24297200
 O                 15.42770600    3.18217800   -0.23658000
 O                 22.04772500    3.20583900   -0.36904400
 O                 24.89367900    2.68205900   -0.22920600
 O                 25.14459600   -2.49091700    0.48766500
 O                 27.99138300   -3.00876500    0.63553300
 O                 34.62133300   -2.97383400    0.58801100
 O                 37.47445700   -2.38994900    0.58056600
 C                -24.41633100   -4.07536900   -0.18438900
 C                -23.14324600   -4.22334100   -1.01736800
 C                -14.50120000   -4.21580900   -1.09410600
 C                -13.19951300   -4.02922200   -0.31501900
 C                -11.91849700    3.85746500   -0.42850200
 C                -10.61970000    4.05261200    0.35343900
 C                 -1.99106100    4.09541900   -0.78620900
 C                 -0.69901400    3.88093600    0.00188000
 C                  0.63534800   -3.99036300   -0.33447800
 C                  1.92305700   -4.19002100    0.46443000
 C                 10.56950400   -4.19771800   -0.25665100
 C                 11.85805100   -3.89495500    0.50802500
 C                 13.12452800    3.89761800   -0.70849200
 C                 14.41407000    4.21003300    0.05064500
 C                 23.05321900    4.16798800   -0.84816600
 C                 24.33847900    4.02839800   -0.03280900
 C                 25.70269400   -3.83572400    0.29109800
 C                 26.98580900   -3.97368000    1.11006200
 C                 35.64658900   -4.00463300    0.34699800
 C                 36.93106000   -3.65296500    1.09716100
 H                -25.19763300   -4.76437300   -0.51539300
 H                -22.69005200   -5.20996900   -0.88923500
 H                -23.35560700   -4.04318800   -2.07955200
 H                -24.20363900   -4.23261400    0.88144900
 H                -13.37246300   -4.14637800    0.76328300
 H                -12.42719300   -4.72765600   -0.64758600
 H                -14.94363200   -5.19891700   -0.91225300
 H                -14.32880600   -4.07489800   -2.16936200
 H                -11.74147800    3.96318200   -1.50727000
 H                -10.17714900    5.03392600    0.16241200
 H                -10.79582000    3.92365800    1.42964000
 H                -12.69254900    4.55897400   -0.10654000
 H                  0.07368000    4.59797200   -0.28746200
 H                 -1.80320800    4.00492000   -1.86431800
 H                 -0.88768500    3.94794400    1.08181000
 H                 -2.44194000    5.06675100   -0.56586400
 H                  0.83015900   -4.07659400   -1.41196200
 H                 -0.13856700   -4.70253300   -0.03649300
 H                  2.37520600   -5.16518700    0.26447200
 H                  1.72884400   -4.07986300    1.53961400
 H                 10.12621400   -5.14605500    0.05875200
 H                 11.66744100   -3.85467800    1.58898400
 H                 12.63695500   -4.63117300    0.29307700
 H                 10.75983100   -4.21346700   -1.33803500
 H                 24.93028600   -4.52962100    0.63277800
 H                 26.78388400   -3.79042500    2.17370300
 H                 25.90459500   -3.99491300   -0.77675200
 H                 27.44421900   -4.95782800    0.98089400
 H                 35.20748000   -4.93789900    0.70990000
 H                 35.83865900   -4.07478500   -0.73194900
 H                 36.73430300   -3.55839900    2.17428300
 H                 37.71004500   -4.40105300    0.92686000
 H                 14.85698300    5.15437600   -0.27701000
 H                 25.11154700    4.72026800   -0.37711300
 H                 13.31346900    3.84426400   -1.78917200
 H                 14.22542700    4.23903700    1.13201600
 H                 23.25164400    3.98350100   -1.91231800
 H                 12.34569300    4.63616000   -0.50144000
 H                 22.59756300    5.15335500   -0.71854100
 H                 24.13986600    4.18872700    1.03542900
 C                -25.74737700    0.09816600    0.02033500
 C                -26.14412200    1.42001100    0.21039500
 C                -27.54425600    1.66142500    0.32965100
 C                -28.37244300    0.54179200    0.25440900
 C                -25.74372200    3.69868300    0.87312600
 C                -27.10206800    4.02651900    0.24793600
 C                -29.79627200    0.57527300    0.35447100
 C                -30.66096200   -0.63211000    0.26692000
 C                -32.18734200   -0.54630900    0.38871200
 C                -32.88117700    0.74615400    0.59967500
 C                -30.64221000    1.65817200    0.54486400
 C                -31.90214500    1.72620000    0.64527700
 C                -34.30427600    0.88411800    0.72567300
 C                -34.98141400    2.08159500    0.91653400
 C                -36.42060000    1.99233800    1.01720900
 C                -36.93565000    0.72726200    0.89914500
 C                -35.18192600    4.48050500    0.88255900
 C                -36.45662900    4.29177900    1.70812100
 O                -25.20529000    2.46603800    0.27361700
 O                -28.06406800    2.94571900    0.52832200
 O                -34.30540000    3.30267600    1.02284400
 O                -37.21821000    3.13639900    1.20495900
 N                -30.12840300   -1.83906900    0.08217200
 N                -32.87313700   -1.68843300    0.30147400
 H                -37.98205500    0.46034900    0.95080800
 H                -25.83952300    3.55988700    1.95828900
 H                -25.00627100    4.47647000    0.65918700
 H                -27.54059200    4.92628900    0.68696900
 H                -27.00630800    4.14792000   -0.83909500
 H                -34.58896100    5.32513300    1.24281800
 H                -35.42695500    4.61985800   -0.17876700
 H                -36.20904600    4.13366800    2.76688700
 H                -37.12624300    5.15006200    1.60747300
 Te               -31.59597700   -3.24252400    0.02289200
 Te               -18.82862800    3.08636900   -0.00531100
 Te                -6.28789200   -3.27666400   -0.34568700
 Te                 6.21709400    3.17008300   -0.31010500
 Te                18.77248700   -3.14201400    0.32127200
 Te                31.26081100    3.33117500   -0.13932200
 Se                35.29755400    1.07120600    0.22193000
 Se                27.26379500    1.00964800    0.05262500
 Se                22.77111800   -0.81810100    0.18820200
 Se                14.74943200   -0.88021100    0.01287800
 Se                10.23497400    0.89179600   -0.15162600
 Se                 2.21664700    0.85565900   -0.21830200
 Se                -2.28251900   -0.96259900   -0.20833500
 Se               -10.30466900   -0.98163500   -0.38840400
 Se               -14.81363500    0.80669500   -0.25945400
 Se               -22.82867900    0.77237100   -0.04605000
 Se               -27.32053300   -1.06186700   -0.02046100
 Se               -35.56495800   -0.58467700    0.63382700

 1 2 1.0 6 1.5 7 1.0
 2 3 1.0 8 1.5
 3 4 1.0 9 1.5
 4 5 1.5 18 1.0
 5 6 1.5 10 1.0
 6 11 1.0
 7 12 1.5 214 1.0
 8 209 1.0
 9 209 1.0
 10
 11
 12 13 1.5 105 1.0
 13 14 1.5 104 1.0
 14 33 1.5 214 1.0
 15 16 1.5 86 1.5 213 1.0
 16 17 1.5 107 1.0
 17 18 1.5 106 1.0
 18 213 1.0
 19 20 1.0 24 1.5 25 1.0
 20 21 1.0 26 1.5
 21 22 1.0 27 1.5
 22 23 1.5 36 1.0
 23 24 1.5 28 1.0
 24 29 1.0
 25 30 1.5 216 1.0
 26 208 1.0
 27 208 1.0
 28
 29
 30 31 1.5 101 1.0
 31 32 1.5 100 1.0
 32 51 1.5 216 1.0
 33 34 1.5 215 1.0
 34 35 1.5 103 1.0
 35 36 1.5 102 1.0
 36 215 1.0
 37 38 1.0 42 1.5 43 1.0
 38 39 1.0 44 1.5
 39 40 1.0 45 1.5
 40 41 1.5 54 1.0
 41 42 1.5 46 1.0
 42 47 1.0
 43 48 1.5 218 1.0
 44 207 1.0
 45 207 1.0
 46
 47
 48 49 1.5 97 1.0
 49 50 1.5 96 1.0
 50 69 1.5 218 1.0
 51 52 1.5 217 1.0
 52 53 1.5 99 1.0
 53 54 1.5 98 1.0
 54 217 1.0
 55 56 1.0 60 1.5 61 1.0
 56 57 1.0 62 1.5
 57 58 1.0 63 1.5
 58 59 1.5 72 1.0
 59 60 1.5 64 1.0
 60 65 1.0
 61 66 1.5 220 1.0
 62 206 1.0
 63 206 1.0
 64
 65
 66 67 1.5 93 1.0
 67 68 1.5 92 1.0
 68 172 1.5 220 1.0
 69 70 1.5 219 1.0
 70 71 1.5 95 1.0
 71 72 1.5 94 1.0
 72 219 1.0
 73 74 1.0 78 1.5 79 1.0
 74 75 1.0 80 1.5
 75 76 1.0 81 1.5
 76 77 1.5 90 1.0
 77 78 1.5 82 1.0
 78 83 1.0
 79 84 1.5 212 1.0
 80 210 1.0
 81 210 1.0
 82
 83
 84 85 1.5 109 1.0
 85 86 1.5 108 1.0
 86 212 1.0
 87 88 2.0 91 1.0 211 1.0
 88 89 1.0 111 1.0
 89 90 1.5 110 1.0
 90 211 1.0
 91
 92 112 1.0
 93 113 1.0
 94 114 1.0
 95 115 1.0
 96 116 1.0
 97 117 1.0
 98 118 1.0
 99 119 1.0
 100 120 1.0
 101 121 1.0
 102 122 1.0
 103 123 1.0
 104 124 1.0
 105 125 1.0
 106 126 1.0
 107 127 1.0
 108 128 1.0
 109 129 1.0
 110 130 1.0
 111 131 1.0
 112 113 1.0 132 1.0 135 1.0
 113 133 1.0 134 1.0
 114 115 1.0 138 1.0 139 1.0
 115 136 1.0 137 1.0
 116 117 1.0 140 1.0 143 1.0
 117 141 1.0 142 1.0
 118 119 1.0 145 1.0 147 1.0
 119 144 1.0 146 1.0
 120 121 1.0 148 1.0 149 1.0
 121 150 1.0 151 1.0
 122 123 1.0 152 1.0 155 1.0
 123 153 1.0 154 1.0
 124 125 1.0 166 1.0 169 1.0
 125 164 1.0 167 1.0
 126 127 1.0 168 1.0 170 1.0
 127 165 1.0 171 1.0
 128 129 1.0 156 1.0 158 1.0
 129 157 1.0 159 1.0
 130 131 1.0 160 1.0 161 1.0
 131 162 1.0 163 1.0
 132
 133
 134
 135
 136
 137
 138
 139
 140
 141
 142
 143
 144
 145
 146
 147
 148
 149
 150
 151
 152
 153
 154
 155
 156
 157
 158
 159
 160
 161
 162
 163
 164
 165
 166
 167
 168
 169
 170
 171
 172 173 1.5 221 1.0
 173 174 1.5 190 1.0
 174 175 1.5 191 1.0
 175 178 1.5 221 1.0
 176 177 1.0 190 1.0 197 1.0 198 1.0
 177 191 1.0 199 1.0 200 1.0
 178 179 1.0 182 1.5
 179 180 1.0 194 1.5
 180 181 1.0 195 1.5
 181 183 1.5 184 1.5
 182 183 2.0
 183
 184 185 1.5 222 1.0
 185 186 1.5 192 1.0
 186 187 2.0 193 1.0
 187 196 1.0 222 1.0
 188 189 1.0 192 1.0 201 1.0 202 1.0
 189 193 1.0 203 1.0 204 1.0
 190
 191
 192
 193
 194 205 1.0
 195 205 1.0
 196
 197
 198
 199
 200
 201
 202
 203
 204
 205
 206
 207
 208
 209
 210
 211
 212
 213
 214
 215
 216
 217
 218
 219
 220
 221
 222

