%chk=B-SeOSe6.chk
%mem=600MW
# td=(nstates=10) b3lyp/lanl2dz 

B-SeOSe6

0 1
 C                 17.18079700    0.95958200   -0.13475600
 C                 17.97900500   -0.23597600    0.01807900
 C                 19.43391700   -0.20653800    0.03383800
 C                 20.18577500    1.02017100   -0.10321000
 C                 19.37359700    2.16129500   -0.24910400
 C                 17.94920700    2.13233000   -0.26736600
 C                 15.73381800    0.91951700   -0.14805300
 N                 17.55453500   -1.50279600    0.16298400
 N                 19.90612600   -1.45504200    0.19082700
 H                 19.85938900    3.12244700   -0.35428500
 H                 17.42756800    3.07233200   -0.39011300
 C                 14.85527800    2.00091700   -0.23849100
 C                 13.46028200    1.68845300   -0.24428100
 C                 13.11203800    0.34698100   -0.14402300
 C                 24.27416300    0.58345400    0.05255000
 C                 23.87571700    1.89629600   -0.16564000
 C                 22.46991300    2.14462500   -0.24816200
 C                 21.63354100    1.03931000   -0.08342000
 C                  4.71146400   -0.83701600   -0.14113500
 C                  5.46847800    0.39064600   -0.23658400
 C                  6.92340600    0.41300700   -0.23123500
 C                  7.71724500   -0.79037600   -0.12547200
 C                  6.94421900   -1.96414400   -0.03203000
 C                  5.51963200   -1.98664800   -0.04495700
 C                  3.26383000   -0.84637800   -0.14968400
 N                  5.00104100    1.64615000   -0.34321800
 N                  7.35269100    1.68237100   -0.33384400
 H                  7.46248800   -2.91007300    0.05492200
 H                  5.03011500   -2.94914400    0.02509300
 C                  2.42020700   -1.95397800   -0.04564200
 C                  1.01575500   -1.69098000   -0.09415400
 C                  0.62495300   -0.36309700   -0.21674700
 C                 11.78700500   -0.18599200   -0.12664900
 C                 11.43725800   -1.52760800   -0.03459300
 C                 10.04163500   -1.83804700   -0.03972300
 C                  9.16439500   -0.75446900   -0.11583200
 C                 -7.80677000    0.57800800   -0.30740000
 C                 -7.01938500   -0.63394800   -0.31396000
 C                 -5.56418400   -0.61907200   -0.32162700
 C                 -4.80153000    0.60895900   -0.33049500
 C                 -5.60390400    1.76654500   -0.32753500
 C                 -7.02849500    1.75178200   -0.31762800
 C                 -9.25425300    0.55246700   -0.29346800
 N                 -7.45490500   -1.90541900   -0.31234700
 N                 -5.10267200   -1.88123500   -0.32031300
 H                 -5.11008800    2.72936400   -0.33191600
 H                 -7.54198600    2.70432300   -0.31697500
 C                -10.12162700    1.64292900   -0.20767600
 C                -11.52007200    1.34693100   -0.23020700
 C                -11.88160700    0.00832500   -0.32323900
 C                 -0.71584200    0.12573900   -0.27529900
 C                 -1.10521700    1.45563100   -0.38075500
 C                 -2.50921200    1.72138200   -0.41985900
 C                 -3.35412700    0.61309200   -0.33615200
 C                -20.29102700   -1.10321400   -0.27076200
 C                -19.52461300    0.11924900   -0.19398400
 C                -18.07013900    0.13161100   -0.22907600
 C                -17.28623700   -1.07852100   -0.33866100
 C                -18.06878500   -2.24828400   -0.40164800
 C                -19.49306400   -2.25951100   -0.37073800
 C                -21.73840400   -1.10366200   -0.23544600
 N                -19.98142000    1.37805900   -0.07961800
 N                -17.63032100    1.39803400   -0.13769300
 H                -17.55871800   -3.19975500   -0.47455600
 H                -19.99042500   -3.21914300   -0.42371800
 C                -22.59036200   -2.20389300   -0.34958000
 C                -23.99106200   -1.93510100   -0.25829400
 C                -24.37019100   -0.60962700   -0.08043200
 C                -13.21190200   -0.51018200   -0.35780800
 C                -13.57464400   -1.84725500   -0.46778400
 C                -14.97311500   -2.14226400   -0.48547500
 C                -15.83972100   -1.05351100   -0.36669900
 C                 29.70779500   -0.31627700    0.33478700
 C                 30.45732000    0.91147300    0.18568400
 C                 31.91145000    0.94653800    0.20993000
 C                 32.71012500   -0.24300100    0.38632600
 C                 31.94872300   -1.41445800    0.52929800
 C                 30.52138400   -1.45107900    0.50068100
 C                 28.25930400   -0.33808400    0.30790800
 N                 29.98196600    2.15558700    0.00848900
 N                 32.33237300    2.21370500    0.04946600
 H                 32.47334800   -2.35062000    0.66933000
 H                 30.03954000   -2.41308700    0.61499400
 C                 27.42495600   -1.44415200    0.47447400
 C                 26.01851400   -1.19872500    0.38857500
 C                 25.61857000    0.11301800    0.16721400
 C                 36.75301000    0.38182400    0.42645000
 C                 36.45564100   -0.94926600    0.54775600
 C                 35.04416100   -1.27306900    0.53281800
 C                 34.16375500   -0.20273000    0.41211000
 H                 37.74322100    0.81496500    0.41747500
 O                -24.95827500   -2.94693800   -0.35376700
 O                -22.12095300   -3.51674300   -0.53301700
 O                -15.42697500   -3.46746800   -0.60298000
 O                -12.59461300   -2.84786700   -0.56732100
 O                -12.50106000    2.34753700   -0.14852500
 O                 -9.66997500    2.97134200   -0.11180800
 O                 -2.98838300    3.03903600   -0.52689400
 O                 -0.14514600    2.47718100   -0.45613400
 O                  0.05702000   -2.71326800   -0.00976200
 O                  2.90158000   -3.26857300    0.08746000
 O                  9.60100800   -3.17094300    0.04257400
 O                 12.42679800   -2.52046700    0.04702400
 O                 12.46960000    2.67934200   -0.33358700
 O                 15.29373100    3.33373800   -0.33181300
 O                 21.98133600    3.44441100   -0.47036000
 O                 24.82770300    2.91808600   -0.30733800
 O                 25.06821300   -2.22269300    0.53105600
 O                 27.91590300   -2.74182600    0.70152000
 O                 34.61050700   -2.60452400    0.65101400
 O                 37.44665600   -1.94053300    0.65879000
 C                -24.42431500   -4.30694400   -0.16891100
 C                -23.14951100   -4.46684500   -0.99722600
 C                -14.40125000   -4.42269400   -1.06329000
 C                -13.09716900   -4.20452300   -0.29610900
 C                -11.99939900    3.70389300   -0.42408300
 C                -10.69657800    3.92744900    0.34378700
 C                 -1.97722500    4.01667600   -0.97155200
 C                 -0.67918000    3.82239700   -0.18786900
 C                  0.59592300   -4.05974300   -0.26149000
 C                  1.88852400   -4.24339400    0.53363800
 C                 10.64579500   -4.17498100   -0.23384000
 C                 11.92793400   -3.82163300    0.52022000
 C                 12.96644600    3.97874000   -0.81366100
 C                 14.24773700    4.33820700   -0.06113300
 C                 22.99264800    4.39665300   -0.96717700
 C                 24.27719600    4.27397500   -0.14774900
 C                 25.62265000   -3.57634500    0.36930100
 C                 26.90498500   -3.69784600    1.19242000
 C                 35.66703100   -3.61133700    0.43066500
 C                 36.93623000   -3.21516000    1.18453800
 H                -25.21399400   -4.98126100   -0.50875700
 H                -22.70798000   -5.45812000   -0.86719100
 H                -23.35335800   -4.28310300   -2.06004800
 H                -24.22181400   -4.47218300    0.89724700
 H                -13.25399500   -4.32274800    0.78405700
 H                -12.31084200   -4.88273900   -0.63609100
 H                -14.82076700   -5.41321300   -0.86984300
 H                -14.24287800   -4.28560300   -2.14078500
 H                -11.84104800    3.81747100   -1.50449000
 H                -10.27849100    4.91766300    0.14581000
 H                -10.85570400    3.79575100    1.42187600
 H                -12.78754000    4.38220300   -0.08841300
 H                  0.09784300    4.51749500   -0.51499100
 H                 -1.80235600    3.88682700   -2.04740000
 H                 -0.85293600    3.93366600    0.89044200
 H                 -2.41933000    4.99777600   -0.78037100
 H                  0.77785900   -4.18082700   -1.33739200
 H                 -0.18174400   -4.75363800    0.06661400
 H                  2.33386800   -5.22557700    0.35582800
 H                  1.70477900   -4.10305400    1.60673000
 H                 10.22906900   -5.12685600    0.10510000
 H                 11.74372900   -3.76659000    1.60116500
 H                 12.72790400   -4.53648700    0.31305800
 H                 10.83164200   -4.20979100   -1.31513800
 H                 24.84694300   -4.25688300    0.72847900
 H                 26.70415300   -3.49327600    2.25197200
 H                 25.82135700   -3.76098600   -0.69457700
 H                 27.36236600   -4.68438100    1.08201400
 H                 35.25047800   -4.55078600    0.80333000
 H                 35.86609100   -3.68939900   -0.64611300
 H                 36.73261500   -3.11537200    2.25960400
 H                 37.73750200   -3.94118700    1.02441600
 H                 14.66346500    5.28860400   -0.40535900
 H                 25.05389000    4.95126000   -0.51087300
 H                 13.15108300    3.91807800   -1.89422300
 H                 14.06172100    4.37890200    1.01990100
 H                 23.18952900    4.18930200   -2.02695600
 H                 12.16516000    4.69331000   -0.61065600
 H                 22.53828700    5.38464200   -0.85753100
 H                 24.08229200    4.46154700    0.91625200
 C                -25.70414700   -0.11926200    0.04657200
 C                -26.08274100    1.20686200    0.23841400
 C                -27.47963000    1.46794500    0.35210600
 C                -28.31883700    0.35754200    0.26922400
 C                -25.64648900    3.47988600    0.89866900
 C                -26.99904600    3.82558100    0.27084100
 C                -29.74299100    0.40722400    0.35841700
 C                -30.63616600   -0.76051800    0.26176200
 C                -32.10959700   -0.67330600    0.36394000
 C                -32.83288600    0.58869100    0.57352400
 C                -30.58815200    1.49784800    0.54724100
 C                -31.84896100    1.57021100    0.63527300
 C                -34.25749000    0.71816500    0.68441500
 C                -34.93768200    1.91451700    0.87351800
 C                -36.37727900    1.82133100    0.95645800
 C                -36.88843400    0.55537100    0.82530800
 C                -35.14210700    4.31380800    0.85562800
 C                -36.42633700    4.11447800    1.66331900
 O                -25.12791100    2.23258000    0.30664900
 O                -27.97989900    2.75703400    0.54907200
 O                -34.26548000    3.13288900    0.99196600
 O                -37.17878900    2.95989500    1.14114000
 N                -30.28232400   -2.04002500    0.07879200
 N                -32.63276700   -1.90295000    0.24146500
 H                -37.93335200    0.28181700    0.86292200
 H                -25.74173300    3.34768800    1.98426800
 H                -24.89557400    4.24239300    0.67878000
 H                -27.42560500    4.73065200    0.70997700
 H                -26.90231700    3.94493800   -0.81591100
 H                -34.55348900    5.15327300    1.23384500
 H                -35.37188700    4.46463200   -0.20713700
 H                -36.19390000    3.94842000    2.72401700
 H                -37.09732900    4.97097100    1.55964800
 Se                35.18456200    1.45108500    0.26995700
 Se                27.17789100    1.25863700    0.02481600
 Se                22.71287700   -0.56032900    0.19214200
 Se                14.71602300   -0.73908900   -0.03000400
 Se                10.18430100    0.90357000   -0.22271300
 Se                 2.19380400    0.77548600   -0.30695500
 Se                -2.28598800   -1.01293200   -0.21252400
 Se               -10.28797100   -1.09650200   -0.39949900
 Se               -14.80356800    0.59322500   -0.24049200
 Se               -22.79302600    0.51933600   -0.00736300
 Se               -27.28048300   -1.25804300   -0.00420300
 Se               -35.51812800   -0.75030000    0.56998300
 O                -31.50994300   -2.77178300    0.06318300
 O                -18.81064100    2.19380300   -0.04280900
 O                 -6.27032600   -2.70165600   -0.31540800
 O                  6.16476500    2.46992400   -0.40511700
 O                 18.74534300   -2.28144100    0.27299100
 O                 31.13872500    2.98466700   -0.07841900

 1 2 1.5 6 1.5 7 1.5
 2 3 1.0 8 1.5
 3 4 1.5 9 1.5
 4 5 1.5 18 1.0
 5 6 1.5 10 1.0
 6 11 1.0
 7 12 1.5 208 1.0
 8 221 1.0
 9 221 1.0
 10
 11
 12 13 1.5 105 1.0
 13 14 1.5 104 1.0
 14 33 1.5 208 1.0
 15 16 1.5 86 1.5 207 1.0
 16 17 1.5 107 1.0
 17 18 1.5 106 1.0
 18 207 1.0
 19 20 1.5 24 1.5 25 1.0
 20 21 1.0 26 1.5
 21 22 1.5 27 1.5
 22 23 1.5 36 1.0
 23 24 1.5 28 1.0
 24 29 1.0
 25 30 1.5 210 1.0
 26 220 1.0
 27 220 1.0
 28
 29
 30 31 1.5 101 1.0
 31 32 1.5 100 1.0
 32 51 1.5 210 1.0
 33 34 1.5 209 1.0
 34 35 1.5 103 1.0
 35 36 1.5 102 1.0
 36 209 1.0
 37 38 1.5 42 1.5 43 1.0
 38 39 1.0 44 1.5
 39 40 1.5 45 1.5
 40 41 1.5 54 1.5
 41 42 1.5 46 1.0
 42 47 1.0
 43 48 1.5 212 1.0
 44 219 1.0
 45 219 1.0
 46
 47
 48 49 1.5 97 1.0
 49 50 1.5 96 1.0
 50 69 1.5 212 1.0
 51 52 1.5 211 1.0
 52 53 1.5 99 1.0
 53 54 1.5 98 1.0
 54 211 1.0
 55 56 1.5 60 1.5 61 1.0
 56 57 1.0 62 1.5
 57 58 1.5 63 1.5
 58 59 1.5 72 1.5
 59 60 1.5 64 1.0
 60 65 1.0
 61 66 1.5 214 1.0
 62 218 1.0
 63 218 1.0
 64
 65
 66 67 1.5 93 1.0
 67 68 1.5 92 1.0
 68 172 1.5 214 1.0
 69 70 1.5 213 1.0
 70 71 1.5 95 1.0
 71 72 1.5 94 1.0
 72 213 1.0
 73 74 1.5 78 1.5 79 1.0
 74 75 1.0 80 1.5
 75 76 1.5 81 1.5
 76 77 1.5 90 1.0
 77 78 1.5 82 1.0
 78 83 1.0
 79 84 1.5 206 1.0
 80 222 1.0
 81 222 1.0
 82
 83
 84 85 1.5 109 1.0
 85 86 1.5 108 1.0
 86 206 1.0
 87 88 2.0 91 1.0 205 1.0
 88 89 1.0 111 1.0
 89 90 1.5 110 1.0
 90 205 1.0
 91
 92 112 1.0
 93 113 1.0
 94 114 1.0
 95 115 1.0
 96 116 1.0
 97 117 1.0
 98 118 1.0
 99 119 1.0
 100 120 1.0
 101 121 1.0
 102 122 1.0
 103 123 1.0
 104 124 1.0
 105 125 1.0
 106 126 1.0
 107 127 1.0
 108 128 1.0
 109 129 1.0
 110 130 1.0
 111 131 1.0
 112 113 1.0 132 1.0 135 1.0
 113 133 1.0 134 1.0
 114 115 1.0 138 1.0 139 1.0
 115 136 1.0 137 1.0
 116 117 1.0 140 1.0 143 1.0
 117 141 1.0 142 1.0
 118 119 1.0 145 1.0 147 1.0
 119 144 1.0 146 1.0
 120 121 1.0 148 1.0 149 1.0
 121 150 1.0 151 1.0
 122 123 1.0 152 1.0 155 1.0
 123 153 1.0 154 1.0
 124 125 1.0 166 1.0 169 1.0
 125 164 1.0 167 1.0
 126 127 1.0 168 1.0 170 1.0
 127 165 1.0 171 1.0
 128 129 1.0 156 1.0 158 1.0
 129 157 1.0 159 1.0
 130 131 1.0 160 1.0 161 1.0
 131 162 1.0 163 1.0
 132
 133
 134
 135
 136
 137
 138
 139
 140
 141
 142
 143
 144
 145
 146
 147
 148
 149
 150
 151
 152
 153
 154
 155
 156
 157
 158
 159
 160
 161
 162
 163
 164
 165
 166
 167
 168
 169
 170
 171
 172 173 1.5 215 1.0
 173 174 1.5 190 1.0
 174 175 1.5 191 1.0
 175 178 1.5 215 1.0
 176 177 1.0 190 1.0 197 1.0 198 1.0
 177 191 1.0 199 1.0 200 1.0
 178 179 1.0 182 1.5
 179 180 1.0 194 1.5
 180 181 1.0 195 1.5
 181 183 1.5 184 1.5
 182 183 2.0
 183
 184 185 1.5 216 1.0
 185 186 1.5 192 1.0
 186 187 2.0 193 1.0
 187 196 1.0 216 1.0
 188 189 1.0 192 1.0 201 1.0 202 1.0
 189 193 1.0 203 1.0 204 1.0
 190
 191
 192
 193
 194 217 1.0
 195 217 1.0
 196
 197
 198
 199
 200
 201
 202
 203
 204
 205
 206
 207
 208
 209
 210
 211
 212
 213
 214
 215
 216
 217
 218
 219
 220
 221
 222

