%chk=B-SOS6.chk
%mem=600MW
# td=(nstates=10) b3lyp/lanl2dz 

B-SOS6

0 1
 C                -16.84355400   -1.12150800   -0.09879900
 C                -17.64116700    0.08132800   -0.00481500
 C                -19.09835800    0.04806100    0.00838100
 C                -19.84132600   -1.18999600   -0.07137100
 C                -19.02829600   -2.33420000   -0.16158000
 C                -17.60503300   -2.30162600   -0.17767400
 C                -15.39660900   -1.10618200   -0.11045200
 N                -17.22052100    1.35608000    0.08056500
 N                -19.57525400    1.30229300    0.10312900
 H                -19.51091500   -3.30107800   -0.22288600
 H                -17.08025300   -3.24513300   -0.25415900
 C                -14.52401400   -2.19395800   -0.13503200
 C                -13.13716300   -1.85360500   -0.15229600
 C                -12.86203500   -0.49208200   -0.12884100
 C                -23.84587000   -0.75145400    0.06312300
 C                -23.51135100   -2.08819900   -0.11128200
 C                -22.11087400   -2.35965600   -0.18498500
 C                -21.28775900   -1.24137100   -0.05645000
 C                 -4.60125400    0.82968600   -0.15340700
 C                 -5.34669800   -0.40800400   -0.21658200
 C                 -6.80395000   -0.43782800   -0.21543200
 C                 -7.59956200    0.76808600   -0.14902200
 C                 -6.83591300    1.94798800   -0.08702200
 C                 -5.41257000    1.97736600   -0.09305200
 C                 -3.15487800    0.87615400   -0.15411000
 N                 -4.87199000   -1.66476200   -0.28443500
 N                 -7.22681600   -1.71302200   -0.28170000
 H                 -7.35924700    2.89380600   -0.03160900
 H                 -4.92821800    2.94422700   -0.04703000
 C                 -2.32838800    1.99488600   -0.05079900
 C                 -0.92842900    1.71591000   -0.09583600
 C                 -0.59700800    0.37244300   -0.21964700
 C                -11.58168600    0.14271200   -0.13430700
 C                -11.30572500    1.50411900   -0.11603800
 C                 -9.91852400    1.84345000   -0.13011900
 C                 -9.04657400    0.75493900   -0.14473000
 C                  7.70995100   -0.61493100   -0.30755400
 C                  6.91782400    0.59481300   -0.29529100
 C                  5.46049900    0.56891700   -0.30764900
 C                  4.71197700   -0.66838700   -0.33447100
 C                  5.52024900   -1.81970100   -0.34758500
 C                  6.94359700   -1.79421400   -0.33707100
 C                  9.15706200   -0.60713700   -0.29046100
 N                  7.34393900    1.87048600   -0.27201500
 N                  4.98889100    1.82849500   -0.29025000
 H                  5.03362800   -2.78632100   -0.36625300
 H                  7.46446600   -2.74293600   -0.35113800
 C                 10.02336100   -1.69809500   -0.22477300
 C                 11.41230000   -1.36610600   -0.23744600
 C                 11.69481500   -0.00730000   -0.30126600
 C                  0.70822400   -0.20590100   -0.28451800
 C                  1.03885800   -1.55033700   -0.40047400
 C                  2.43856900   -1.83074300   -0.43984000
 C                  3.26575600   -0.71190000   -0.34347700
 C                 19.96004400    1.27561700   -0.21268500
 C                 19.20952400    0.04006000   -0.19349300
 C                 17.75280000    0.01620800   -0.22880800
 C                 16.96269000    1.22682700   -0.28306400
 C                 17.73154800    2.40522000   -0.29266500
 C                 19.15452500    2.42797300   -0.25972800
 C                 21.40632000    1.31669200   -0.17933200
 N                 19.67819600   -1.21972000   -0.14072000
 N                 17.32405400   -1.25823200   -0.19851800
 H                 17.21284600    3.35464100   -0.32357700
 H                 19.64319100    3.39377300   -0.26818100
 C                 22.23818700    2.43446900   -0.24500600
 C                 23.63525700    2.15022400   -0.16859500
 C                 23.95902800    0.80351900   -0.05460500
 C                 12.97860900    0.61979900   -0.32386200
 C                 13.26192900    1.97791800   -0.39954800
 C                 14.65076700    2.30950800   -0.40483500
 C                 15.51659300    1.21919400   -0.31599100
 C                -29.15842200    0.25111000    0.31336000
 C                -29.89948300   -0.98803200    0.22074300
 C                -31.35593200   -1.02513500    0.24066000
 C                -32.15365200    0.17338400    0.35657700
 C                -31.39835600    1.35232600    0.44681500
 C                -29.97232400    1.39075600    0.42238600
 C                -27.71124200    0.30426600    0.29331300
 N                -29.42040600   -2.23948600    0.10644900
 N                -31.77426900   -2.30042900    0.13972000
 H                -31.92553800    2.29329700    0.53952900
 H                -29.49278600    2.35842700    0.49336100
 C                -26.88961800    1.42282900    0.42438600
 C                -25.48864100    1.15332200    0.34813800
 C                -25.15307900   -0.18262300    0.17030200
 C                -36.11232600   -0.46391200    0.41037500
 C                -35.88202400    0.88546500    0.45318100
 C                -34.48136600    1.23702500    0.42911200
 C                -33.60697700    0.15665400    0.37795800
 H                -37.06295200   -0.97475700    0.41636700
 O                 24.61286600    3.14728500   -0.21871300
 O                 21.76997500    3.75060700   -0.36891500
 O                 15.08003100    3.64173400   -0.48437300
 O                 12.25486000    2.94487200   -0.47831200
 O                 12.42007900   -2.33293200   -0.17473500
 O                  9.59554900   -3.03205400   -0.15658900
 O                  2.91373200   -3.14474700   -0.55915100
 O                  0.06589800   -2.55100500   -0.48524800
 O                  0.04384600    2.71699100   -0.00751900
 O                 -2.80456000    3.30759600    0.07976700
 O                 -9.49688800    3.18100300   -0.12026600
 O                -12.31818100    2.46852600   -0.09922200
 O                -12.12416200   -2.81718700   -0.17631900
 O                -14.94457800   -3.53170500   -0.14993400
 O                -21.63186200   -3.66545200   -0.36433500
 O                -24.48064400   -3.08982100   -0.21905400
 O                -24.52050800    2.15661100    0.45753900
 O                -27.37035000    2.72714500    0.60812700
 O                -34.06745000    2.57638400    0.46801800
 O                -36.89922700    1.84998200    0.49590400
 C                 24.08607300    4.50176200    0.02658700
 C                 22.80949300    4.71293600   -0.78897400
 C                 14.02772800    4.58288900   -0.92092800
 C                 12.72462700    4.30621900   -0.16920500
 C                 11.94913100   -3.69441600   -0.48236500
 C                 10.64974400   -3.97282800    0.27514200
 C                  1.88855100   -4.10924800   -1.00839100
 C                  0.59023300   -3.90303800   -0.22650600
 C                 -0.48286700    4.06955400   -0.25870600
 C                 -1.77843600    4.27096500    0.52895100
 C                -10.56328500    4.14505100   -0.46148600
 C                -11.84664900    3.80585900    0.29867200
 C                -12.59573400   -4.15359300   -0.57731800
 C                -13.87670100   -4.49636100    0.18522200
 C                -22.66054800   -4.61813400   -0.83083600
 C                -23.94575700   -4.44791600   -0.01933700
 C                -25.05823500    3.51293600    0.25617100
 C                -26.34187800    3.68229900    1.07038500
 C                -35.14592700    3.54235700    0.17392900
 C                -36.41663600    3.16824800    0.93903400
 H                 24.88029500    5.18390500   -0.28537200
 H                 22.37805900    5.70071700   -0.60939500
 H                 23.00683500    4.57775400   -1.86012100
 H                 23.88883000    4.62119200    1.09982600
 H                 12.87103700    4.39960800    0.91485500
 H                 11.92299300    4.97253200   -0.49616400
 H                 14.41864400    5.57783100   -0.69414700
 H                 13.88103400    4.47370100   -2.00309700
 H                 11.79734100   -3.78660000   -1.56576800
 H                 10.25888500   -4.96792800    0.04898900
 H                 10.80112400   -3.86492000    1.35683300
 H                 12.75305200   -4.36033900   -0.16017300
 H                 -0.19300800   -4.58789600   -0.55973100
 H                  1.71894600   -3.97208000   -2.08402600
 H                  0.75999000   -4.02337900    0.85147600
 H                  2.31842500   -5.09608900   -0.81983200
 H                 -0.65677500    4.19415600   -1.33553400
 H                  0.30080800    4.75393300    0.07447100
 H                 -2.20993100    5.25824800    0.34640400
 H                 -1.60429700    4.12932400    1.60330900
 H                -10.17136000    5.12308300   -0.17155800
 H                -11.67408200    3.81933300    1.38284000
 H                -12.65877800    4.48984800    0.04151600
 H                -10.73594700    4.11478000   -1.54495000
 H                -24.27316100    4.19149300    0.59781000
 H                -26.14958400    3.50816100    2.13679200
 H                -25.25017700    3.66953900   -0.81342200
 H                -26.78189500    4.67212400    0.92579900
 H                -34.75598400    4.51302200    0.49067800
 H                -35.33299300    3.54702200   -0.90772200
 H                -36.22431100    3.14316000    2.02032400
 H                -37.22940300    3.86613600    0.72255300
 H                -14.26884600   -5.47359500   -0.10704000
 H                -24.73157200   -5.12409900   -0.36390300
 H                -12.77130800   -4.16355600   -1.66103900
 H                -13.70123800   -4.46970100    1.26831100
 H                -22.84989700   -4.44225300   -1.89750000
 H                -11.78229900   -4.83771600   -0.32470100
 H                -22.22272700   -5.60895000   -0.68658400
 H                -23.75666600   -4.60656500    1.05039800
 C                 25.25850500    0.22167800    0.05044000
 C                 25.58124900   -1.12682900    0.17314800
 C                 26.97486200   -1.40626200    0.27032100
 C                 27.79535000   -0.28136800    0.23847100
 C                 25.12718100   -3.41651000    0.71686100
 C                 26.47668900   -3.74561000    0.07189900
 C                 29.22085000   -0.29466900    0.31948800
 C                 30.09941800    0.88811300    0.28131400
 C                 31.57633300    0.80962800    0.37744000
 C                 32.30903200   -0.45714400    0.52149300
 C                 30.07533300   -1.38433000    0.45023000
 C                 31.33625300   -1.44937000    0.53300300
 C                 33.73231700   -0.60127100    0.62742000
 C                 34.41768500   -1.80257300    0.75192100
 C                 35.85036700   -1.66897200    0.84038500
 C                 36.28556500   -0.36978200    0.77569300
 C                 34.69466800   -4.18137000    0.60079900
 C                 35.97541300   -3.98718100    1.41746200
 O                 24.61503000   -2.13642000    0.19059700
 O                 27.47219900   -2.70132100    0.39891300
 O                 33.77721100   -3.03946600    0.80225200
 O                 36.69381600   -2.78098200    0.96387100
 N                 29.73351500    2.17277300    0.16474600
 N                 32.08769400    2.04937700    0.31764900
 H                 37.30099600   -0.00706100    0.82161100
 H                 25.22380100   -3.34049500    1.80772900
 H                 24.36930100   -4.15994700    0.45957900
 H                 26.89373200   -4.67481500    0.46724000
 H                 26.37971000   -3.81085200   -1.01926800
 H                 34.13624800   -5.05998700    0.93270200
 H                 34.92544100   -4.26477300   -0.46907100
 H                 35.74160300   -3.88894800    2.48612000
 H                 36.67121100   -4.81571800    1.26363400
 O                 30.95522700    2.91226700    0.18572100
 O                 18.51318000   -2.04242600   -0.14294900
 O                  6.15185900    2.65325100   -0.26825100
 O                 -6.03306000   -2.49163400   -0.32546900
 O                -18.41551800    2.13095900    0.14884400
 O                -30.57702100   -3.06992200    0.05507400
 S                 34.91747600    0.78373100    0.60181600
 S                 26.78811700    1.22771400    0.05994200
 S                 22.42934800   -0.19432500   -0.03571600
 S                 14.53792300   -0.32690500   -0.24326600
 S                 10.13410000    0.93972300   -0.35593200
 S                  2.23399300    0.79517500   -0.21499500
 S                 -2.12224500   -0.62889800   -0.29719200
 S                -10.01662600   -0.79796000   -0.16236900
 S                -14.42763000    0.44738700   -0.08959700
 S                -22.32385500    0.25374200    0.15019300
 S                -26.67382100   -1.18890400    0.08049600
 S                -34.58074200   -1.39331000    0.33763200

 1 2 1.5 6 1.5 7 1.5
 2 3 1.0 8 1.5
 3 4 1.5 9 1.5
 4 5 1.5 18 1.5
 5 6 1.5 10 1.0
 6 11 1.0
 7 12 1.5 219 1.0
 8 209 1.0
 9 209 1.0
 10
 11
 12 13 1.5 105 1.0
 13 14 1.5 104 1.0
 14 33 1.5 219 1.0
 15 16 1.5 86 1.5 220 1.0
 16 17 1.5 107 1.0
 17 18 1.5 106 1.0
 18 220 1.0
 19 20 1.5 24 1.5 25 1.5
 20 21 1.0 26 1.5
 21 22 1.5 27 1.5
 22 23 1.5 36 1.5
 23 24 1.5 28 1.0
 24 29 1.0
 25 30 1.5 217 1.0
 26 208 1.0
 27 208 1.0
 28
 29
 30 31 1.5 101 1.0
 31 32 1.5 100 1.0
 32 51 1.5 217 1.0
 33 34 1.5 218 1.0
 34 35 1.5 103 1.0
 35 36 1.5 102 1.0
 36 218 1.0
 37 38 1.5 42 1.5 43 1.5
 38 39 1.0 44 1.5
 39 40 1.5 45 1.5
 40 41 1.5 54 1.5
 41 42 1.5 46 1.0
 42 47 1.0
 43 48 1.5 215 1.0
 44 207 1.0
 45 207 1.0
 46
 47
 48 49 1.5 97 1.0
 49 50 1.5 96 1.0
 50 69 1.5 215 1.0
 51 52 1.5 216 1.0
 52 53 1.5 99 1.0
 53 54 1.5 98 1.0
 54 216 1.0
 55 56 1.5 60 1.5 61 1.5
 56 57 1.0 62 1.5
 57 58 1.5 63 1.5
 58 59 1.5 72 1.5
 59 60 1.5 64 1.0
 60 65 1.0
 61 66 1.5 213 1.0
 62 206 1.0
 63 206 1.0
 64
 65
 66 67 1.5 93 1.0
 67 68 1.5 92 1.0
 68 172 1.5 213 1.0
 69 70 1.5 214 1.0
 70 71 1.5 95 1.0
 71 72 1.5 94 1.0
 72 214 1.0
 73 74 1.5 78 1.5 79 1.0
 74 75 1.0 80 1.5
 75 76 1.5 81 1.5
 76 77 1.5 90 1.0
 77 78 1.5 82 1.0
 78 83 1.0
 79 84 1.5 221 1.0
 80 210 1.0
 81 210 1.0
 82
 83
 84 85 1.5 109 1.0
 85 86 1.5 108 1.0
 86 221 1.0
 87 88 2.0 91 1.0 222 1.0
 88 89 1.5 111 1.0
 89 90 1.5 110 1.0
 90 222 1.0
 91
 92 112 1.0
 93 113 1.0
 94 114 1.0
 95 115 1.0
 96 116 1.0
 97 117 1.0
 98 118 1.0
 99 119 1.0
 100 120 1.0
 101 121 1.0
 102 122 1.0
 103 123 1.0
 104 124 1.0
 105 125 1.0
 106 126 1.0
 107 127 1.0
 108 128 1.0
 109 129 1.0
 110 130 1.0
 111 131 1.0
 112 113 1.0 132 1.0 135 1.0
 113 133 1.0 134 1.0
 114 115 1.0 138 1.0 139 1.0
 115 136 1.0 137 1.0
 116 117 1.0 140 1.0 143 1.0
 117 141 1.0 142 1.0
 118 119 1.0 145 1.0 147 1.0
 119 144 1.0 146 1.0
 120 121 1.0 148 1.0 149 1.0
 121 150 1.0 151 1.0
 122 123 1.0 152 1.0 155 1.0
 123 153 1.0 154 1.0
 124 125 1.0 166 1.0 169 1.0
 125 164 1.0 167 1.0
 126 127 1.0 168 1.0 170 1.0
 127 165 1.0 171 1.0
 128 129 1.0 156 1.0 158 1.0
 129 157 1.0 159 1.0
 130 131 1.0 160 1.0 161 1.0
 131 162 1.0 163 1.0
 132
 133
 134
 135
 136
 137
 138
 139
 140
 141
 142
 143
 144
 145
 146
 147
 148
 149
 150
 151
 152
 153
 154
 155
 156
 157
 158
 159
 160
 161
 162
 163
 164
 165
 166
 167
 168
 169
 170
 171
 172 173 1.5 212 1.0
 173 174 1.5 190 1.0
 174 175 1.5 191 1.0
 175 178 1.5 212 1.0
 176 177 1.0 190 1.0 197 1.0 198 1.0
 177 191 1.0 199 1.0 200 1.0
 178 179 1.0 182 1.5
 179 180 1.0 194 1.5
 180 181 1.0 195 1.5
 181 183 1.5 184 1.5
 182 183 2.0
 183
 184 185 1.5 211 1.0
 185 186 1.5 192 1.0
 186 187 2.0 193 1.0
 187 196 1.0 211 1.0
 188 189 1.0 192 1.0 201 1.0 202 1.0
 189 193 1.0 203 1.0 204 1.0
 190
 191
 192
 193
 194 205 1.0
 195 205 1.0
 196
 197
 198
 199
 200
 201
 202
 203
 204
 205
 206
 207
 208
 209
 210
 211
 212
 213
 214
 215
 216
 217
 218
 219
 220
 221
 222

