%chk=B-SSS6.chk
%mem=600MW
# td=(nstates=10) b3lyp/lanl2dz 

B-SSS6

0 1
 C                 16.89968500    1.02225300   -0.10977900
 C                 17.67618500   -0.20019800    0.00777000
 C                 19.15786100   -0.17273700    0.03355900
 C                 19.89139000    1.07762200   -0.05959800
 C                 19.08614800    2.22321700   -0.17205000
 C                 17.66523100    2.19684300   -0.19931100
 C                 15.45073200    1.02289300   -0.13279500
 N                 17.13537100   -1.42669100    0.09959200
 N                 19.74029700   -1.37822600    0.14858200
 H                 19.57307000    3.18699700   -0.24287000
 H                 17.14599700    3.14151600   -0.29371300
 C                 14.59491000    2.12408900   -0.18819200
 C                 13.20201200    1.80961600   -0.21279500
 C                 12.90148600    0.45450200   -0.16365400
 C                 23.90581800    0.66901500    0.10428600
 C                 23.55900100    2.00110400   -0.07889900
 C                 22.15625800    2.25720000   -0.16418800
 C                 21.33969900    1.13289900   -0.03546300
 C                  4.61802700   -0.77141800   -0.22579300
 C                  5.35317500    0.47959600   -0.29836700
 C                  6.83503400    0.50408500   -0.28806300
 C                  7.61044200   -0.72164000   -0.20357000
 C                  6.84360200   -1.89693200   -0.13418000
 C                  5.42256900   -1.92077100   -0.14935200
 C                  3.16973600   -0.82254600   -0.23337000
 N                  4.77181200    1.68820800   -0.38035200
 N                  7.37709800    1.73142300   -0.35990700
 H                  7.36217100   -2.84418800   -0.06503300
 H                  4.93470000   -2.88524300   -0.09698800
 C                  2.35100700   -1.94864000   -0.13443500
 C                  0.94822500   -1.68559600   -0.18646800
 C                  0.60279400   -0.34595000   -0.30984200
 C                 11.60928400   -0.15727100   -0.16841700
 C                 11.30828800   -1.51248400   -0.12640200
 C                  9.91508900   -1.82610900   -0.14715900
 C                  9.05954800   -0.72408900   -0.18937700
 C                 -7.71591800    0.60424500   -0.41028800
 C                 -6.94284000   -0.62559300   -0.40366700
 C                 -5.46095000   -0.60413500   -0.41416400
 C                 -4.72392000    0.64785700   -0.43688500
 C                 -5.52648300    1.80106000   -0.44661000
 C                 -6.94762500    1.78025500   -0.43607500
 C                 -9.16508300    0.61088800   -0.39057500
 N                 -7.48690200   -1.85415800   -0.38781300
 N                 -4.88125500   -1.81619800   -0.40096300
 H                 -5.03725900    2.76615700   -0.46193400
 H                 -7.46477900    2.73079600   -0.44670000
 C                -10.01617300    1.71484200   -0.32227300
 C                -11.41089800    1.40770700   -0.33531400
 C                -11.71682100    0.05444900   -0.40194000
 C                 -0.70893000    0.21861700   -0.37859300
 C                 -1.05421600    1.55947200   -0.48955500
 C                 -2.45701600    1.82360400   -0.53300400
 C                 -3.27578700    0.69668000   -0.44495900
 C                -20.00098200   -1.15034000   -0.25587000
 C                -19.26399600    0.10064300   -0.22641700
 C                -17.78330900    0.12324700   -0.27936700
 C                -17.01073900   -1.10527600   -0.35781200
 C                -17.77961200   -2.28147300   -0.37359100
 C                -19.19983400   -2.30240300   -0.32618000
 C                -21.44861600   -1.20030300   -0.20819700
 N                -19.84224100    1.31109000   -0.14789100
 N                -17.23877100    1.35083100   -0.24281500
 H                -17.26347500   -3.23130500   -0.42129900
 H                -19.68959400   -3.26727700   -0.34206800
 C                -22.26989200   -2.32673000   -0.28015000
 C                -23.66960300   -2.06348400   -0.18158000
 C                -24.00996500   -0.72361200   -0.04272000
 C                -13.01152500   -0.55131800   -0.42364900
 C                -13.31758200   -1.90368400   -0.50749600
 C                -14.71187300   -2.21158000   -0.50775600
 C                -15.56293700   -1.10968500   -0.40453000
 C                 29.23344200   -0.29203700    0.39443200
 C                 29.96626300    0.95908500    0.28933300
 C                 31.44713000    0.98979100    0.32108600
 C                 32.22239300   -0.22877600    0.45871800
 C                 31.46232700   -1.40171800    0.55847000
 C                 30.03865900   -1.43350300    0.52377700
 C                 27.78444900   -0.34816100    0.36563900
 N                 29.38259100    2.16163400    0.15680500
 N                 31.98615100    2.21730700    0.21569100
 H                 31.98356600   -2.34408700    0.66746900
 H                 29.55434300   -2.39781200    0.60333800
 C                 26.96901400   -1.47247600    0.49733800
 C                 25.56587500   -1.21795500    0.40990800
 C                 25.21836400    0.11338000    0.22315600
 C                 36.19605500    0.34381500    0.53613400
 C                 35.94106800   -0.99954100    0.60026900
 C                 34.53421300   -1.32481000    0.56880600
 C                 33.67774400   -0.23056700    0.49093200
 H                 37.15694100    0.83547700    0.54196300
 O                -24.63414700   -3.07592700   -0.23448100
 O                -21.78700100   -3.63714600   -0.42862000
 O                -15.16205400   -3.53850900   -0.59462800
 O                -12.32703200   -2.88969900   -0.59803900
 O                -12.40172000    2.39493700   -0.27015900
 O                 -9.56658600    3.04361300   -0.25219100
 O                 -2.94528800    3.13544600   -0.64651700
 O                 -0.09246700    2.57470400   -0.56547900
 O                 -0.01332300   -2.70058600   -0.10439400
 O                  2.83948200   -3.25885600   -0.00273600
 O                  9.47026300   -3.15785000   -0.11494900
 O                 12.30260300   -2.49784000   -0.08056000
 O                 12.20746500    2.79418400   -0.26844300
 O                 15.03911100    3.45571600   -0.22794500
 O                 21.66650000    3.55990300   -0.35283100
 O                 24.51855600    3.01541200   -0.18448000
 O                 24.60725100   -2.23355300    0.51756700
 O                 27.46004600   -2.77362000    0.69057700
 O                 34.09774100   -2.65814400    0.62825200
 O                 36.94101000   -1.98243300    0.66944300
 C                -24.08482900   -4.42415400   -0.01397200
 C                -22.81752900   -4.60560800   -0.85065700
 C                -14.12932900   -4.49132800   -1.04605200
 C                -12.81944500   -4.24328100   -0.29654800
 C                -11.90551600    3.74647500   -0.57574100
 C                -10.60249400    3.99959000    0.18404200
 C                 -1.93087900    4.11192200   -1.08826900
 C                 -0.63459700    3.91698200   -0.30043500
 C                  0.53101800   -4.04459200   -0.35570400
 C                  1.82297700   -4.23214000    0.44090900
 C                 10.52051700   -4.14615400   -0.42763800
 C                 11.80106300   -3.81547400    0.34064900
 C                 12.70978600    4.10955400   -0.69574000
 C                 13.98736100    4.44556900    0.07514200
 C                 22.68744900    4.51950200   -0.81623200
 C                 23.96669600    4.36622800    0.00769400
 C                 25.16137600   -3.58283700    0.32363500
 C                 26.43921400   -3.73566100    1.14985200
 C                 35.16058500   -3.64608000    0.35698600
 C                 36.43071500   -3.28376400    1.12859600
 H                -24.87315400   -5.11484100   -0.32274900
 H                -22.37033000   -5.59048700   -0.69407100
 H                -23.03315900   -4.45584800   -1.91653200
 H                -23.86831200   -4.55522100    1.05440900
 H                -12.96613600   -4.34253000    0.78719000
 H                -12.03107200   -4.92239400   -0.63007500
 H                -14.53580500   -5.48236100   -0.82887600
 H                -13.98360600   -4.37319400   -2.12762300
 H                -11.74851400    3.83802500   -1.65868600
 H                -10.19427300    4.98915500   -0.03650700
 H                -10.75788000    3.88933800    1.26514200
 H                -12.69706500    4.42788100   -0.25455700
 H                  0.14140000    4.61482600   -0.62423600
 H                 -1.75300500    3.98026000   -2.16346900
 H                 -0.81370300    4.02896400    0.77717300
 H                 -2.37287900    5.09353800   -0.89943000
 H                  0.71615900   -4.16506600   -1.43136800
 H                 -0.24624300   -4.74038200   -0.03052700
 H                  2.26659000   -5.21503800    0.26270800
 H                  1.63860300   -4.09180300    1.51394300
 H                 10.10771800   -5.11191900   -0.12516600
 H                 11.61355000   -3.80268100    1.42258200
 H                 12.60232200   -4.52137100    0.10897500
 H                 10.70696000   -4.13881600   -1.50942300
 H                 24.38141300   -4.27052500    0.65933300
 H                 26.23457000   -3.55779800    2.21354500
 H                 25.36657400   -3.74050900   -0.74357500
 H                 26.89056300   -4.72196700    1.01519200
 H                 34.75089400   -4.60563600    0.68295100
 H                 35.35845500   -3.66919900   -0.72267500
 H                 36.22749400   -3.23833500    2.20737000
 H                 37.23251800   -4.00010400    0.93167700
 H                 14.40091100    5.40961700   -0.23170600
 H                 24.74731600    5.05187400   -0.33060700
 H                 12.90120500    4.09034600   -1.77689400
 H                 13.79719300    4.44465600    1.15628100
 H                 22.88960700    4.33974700   -1.88011600
 H                 11.90728300    4.81634400   -0.47122300
 H                 22.23811600    5.50679600   -0.68220600
 H                 23.76384500    4.52587900    1.07500000
 C                -25.31636500   -0.16168400    0.08911900
 C                -25.65688200    1.17952700    0.24153500
 C                -27.05304600    1.43579700    0.36218800
 C                -27.85983100    0.30099200    0.31964600
 C                -25.23256400    3.46379100    0.82920500
 C                -26.59427600    3.78639100    0.20689800
 C                -29.28479700    0.30078600    0.42270700
 C                -30.14802700   -0.89949500    0.37379500
 C                -31.65496700   -0.82278400    0.49836600
 C                -32.36858800    0.45582300    0.67748900
 C                -30.13796500    1.38387100    0.58766900
 C                -31.39684200    1.44596600    0.69192200
 C                -33.79001900    0.60727900    0.80902900
 C                -34.46206300    1.81221300    0.96852300
 C                -35.89440700    1.69221800    1.07804300
 C                -36.34369200    0.39923400    0.99510300
 C                -34.71687500    4.19586400    0.86555500
 C                -35.98600100    4.00074200    1.70015700
 O                -24.70609500    2.20635700    0.26676500
 O                -27.56858900    2.72168000    0.52417100
 O                -33.80805800    3.04319500    1.03384800
 O                -36.72458500    2.81124900    1.23706200
 N                -29.67150400   -2.13979500    0.22183000
 N                -32.27220000   -2.00996500    0.43666300
 H                -37.36263100    0.04751000    1.05067500
 H                -25.31753300    3.36082900    1.91904800
 H                -24.49004700    4.22637800    0.58257600
 H                -27.02020200    4.70141400    0.62560300
 H                -26.50982500    3.87573300   -0.88381300
 H                -34.14485000    5.06418700    1.20176100
 H                -34.96562800    4.29920900   -0.19872300
 H                -35.73430900    3.88060400    2.76262800
 H                -36.67513900    4.83960800    1.57384600
 S                -34.98976000   -0.76568600    0.77591400
 S                -26.83478200   -1.19033800    0.09870300
 S                -22.49035600    0.29635200   -0.03133200
 S                -14.55836000    0.42145400   -0.32863400
 S                -10.16891800   -0.92046800   -0.45650100
 S                 -2.22730900   -0.80128300   -0.32374900
 S                  2.12117600    0.67321400   -0.37889100
 S                 10.05827700    0.81200400   -0.22943900
 S                 14.45262400   -0.51347400   -0.08729200
 S                 22.38974900   -0.35252300    0.18419200
 S                 26.73342000    1.13554600    0.13966100
 S                 34.68175400    1.30167000    0.43125800
 S                -31.04000200   -3.26793600    0.22495700
 S                -18.55642200    2.52883800   -0.13928100
 S                 -6.16651200   -3.03421100   -0.38019700
 S                  6.05531000    2.90658200   -0.44572100
 S                 18.45796700   -2.59720200    0.22551900
 S                 30.66191700    3.38160800    0.06928400

 1 2 1.0 6 1.5 7 1.0
 2 3 1.0 8 1.5
 3 4 1.0 9 1.5
 4 5 1.5 18 1.0
 5 6 1.5 10 1.0
 6 11 1.0
 7 12 1.5 213 1.0
 8 221 1.0
 9 221 1.0
 10
 11
 12 13 1.5 105 1.0
 13 14 1.5 104 1.0
 14 33 1.5 213 1.0
 15 16 1.5 86 1.5 214 1.0
 16 17 1.5 107 1.0
 17 18 1.5 106 1.0
 18 214 1.0
 19 20 1.0 24 1.5 25 1.0
 20 21 1.0 26 1.5
 21 22 1.0 27 1.5
 22 23 1.5 36 1.0
 23 24 1.5 28 1.0
 24 29 1.0
 25 30 1.5 211 1.0
 26 220 1.0
 27 220 1.0
 28
 29
 30 31 1.5 101 1.0
 31 32 1.5 100 1.0
 32 51 1.5 211 1.0
 33 34 1.5 212 1.0
 34 35 1.5 103 1.0
 35 36 1.5 102 1.0
 36 212 1.0
 37 38 1.0 42 1.5 43 1.0
 38 39 1.0 44 1.5
 39 40 1.0 45 1.5
 40 41 1.5 54 1.0
 41 42 1.5 46 1.0
 42 47 1.0
 43 48 1.5 209 1.0
 44 219 1.0
 45 219 1.0
 46
 47
 48 49 1.5 97 1.0
 49 50 1.5 96 1.0
 50 69 1.5 209 1.0
 51 52 1.5 210 1.0
 52 53 1.5 99 1.0
 53 54 1.5 98 1.0
 54 210 1.0
 55 56 1.0 60 1.5 61 1.0
 56 57 1.0 62 1.5
 57 58 1.0 63 1.5
 58 59 1.5 72 1.0
 59 60 1.5 64 1.0
 60 65 1.0
 61 66 1.5 207 1.0
 62 218 1.0
 63 218 1.0
 64
 65
 66 67 1.5 93 1.0
 67 68 1.5 92 1.0
 68 172 1.5 207 1.0
 69 70 1.5 208 1.0
 70 71 1.5 95 1.0
 71 72 1.5 94 1.0
 72 208 1.0
 73 74 1.0 78 1.5 79 1.0
 74 75 1.0 80 1.5
 75 76 1.0 81 1.5
 76 77 1.5 90 1.0
 77 78 1.5 82 1.0
 78 83 1.0
 79 84 1.5 215 1.0
 80 222 1.0
 81 222 1.0
 82
 83
 84 85 1.5 109 1.0
 85 86 1.5 108 1.0
 86 215 1.0
 87 88 2.0 91 1.0 216 1.0
 88 89 1.5 111 1.0
 89 90 1.5 110 1.0
 90 216 1.0
 91
 92 112 1.0
 93 113 1.0
 94 114 1.0
 95 115 1.0
 96 116 1.0
 97 117 1.0
 98 118 1.0
 99 119 1.0
 100 120 1.0
 101 121 1.0
 102 122 1.0
 103 123 1.0
 104 124 1.0
 105 125 1.0
 106 126 1.0
 107 127 1.0
 108 128 1.0
 109 129 1.0
 110 130 1.0
 111 131 1.0
 112 113 1.0 132 1.0 135 1.0
 113 133 1.0 134 1.0
 114 115 1.0 138 1.0 139 1.0
 115 136 1.0 137 1.0
 116 117 1.0 140 1.0 143 1.0
 117 141 1.0 142 1.0
 118 119 1.0 145 1.0 147 1.0
 119 144 1.0 146 1.0
 120 121 1.0 148 1.0 149 1.0
 121 150 1.0 151 1.0
 122 123 1.0 152 1.0 155 1.0
 123 153 1.0 154 1.0
 124 125 1.0 166 1.0 169 1.0
 125 164 1.0 167 1.0
 126 127 1.0 168 1.0 170 1.0
 127 165 1.0 171 1.0
 128 129 1.0 156 1.0 158 1.0
 129 157 1.0 159 1.0
 130 131 1.0 160 1.0 161 1.0
 131 162 1.0 163 1.0
 132
 133
 134
 135
 136
 137
 138
 139
 140
 141
 142
 143
 144
 145
 146
 147
 148
 149
 150
 151
 152
 153
 154
 155
 156
 157
 158
 159
 160
 161
 162
 163
 164
 165
 166
 167
 168
 169
 170
 171
 172 173 1.5 206 1.0
 173 174 1.5 190 1.0
 174 175 1.5 191 1.0
 175 178 1.5 206 1.0
 176 177 1.0 190 1.0 197 1.0 198 1.0
 177 191 1.0 199 1.0 200 1.0
 178 179 1.0 182 1.5
 179 180 1.0 194 1.5
 180 181 1.0 195 1.5
 181 183 1.5 184 1.5
 182 183 2.0
 183
 184 185 1.5 205 1.0
 185 186 1.5 192 1.0
 186 187 2.0 193 1.0
 187 196 1.0 205 1.0
 188 189 1.0 192 1.0 201 1.0 202 1.0
 189 193 1.0 203 1.0 204 1.0
 190
 191
 192
 193
 194 217 1.0
 195 217 1.0
 196
 197
 198
 199
 200
 201
 202
 203
 204
 205
 206
 207
 208
 209
 210
 211
 212
 213
 214
 215
 216
 217
 218
 219
 220
 221
 222

