%chk=B-SSeS6.chk
%mem=600MW
# td=(nstates=10) b3lyp/lanl2dz 

B-SSeS6

0 1
 C                 16.93329800    0.92513500   -0.09457700
 C                 17.69918500   -0.30978200    0.00317300
 C                 19.18887100   -0.28978000    0.02442100
 C                 19.92302000    0.96513300   -0.05445100
 C                 19.12414500    2.11550600   -0.14839600
 C                 17.70324700    2.09646500   -0.17093700
 C                 15.48342300    0.93823700   -0.11212500
 N                 17.12354200   -1.51966100    0.07741800
 N                 19.79455100   -1.48364200    0.11964900
 H                 19.61517000    3.07786500   -0.20767800
 H                 17.18869600    3.04493000   -0.25060600
 C                 14.63747400    2.04826500   -0.14872700
 C                 13.24110100    1.74893400   -0.17411100
 C                 12.92626200    0.39666200   -0.14402800
 C                 23.94119000    0.55455600    0.09568300
 C                 23.59269600    1.88799900   -0.07274500
 C                 22.18941000    2.14366000   -0.15263300
 C                 21.37240200    1.01810900   -0.03439900
 C                  4.62999500   -0.76324100   -0.19612900
 C                  5.36563200    0.49197600   -0.25872500
 C                  6.85544700    0.50948700   -0.25311200
 C                  7.62027600   -0.72786000   -0.18438800
 C                  6.84918100   -1.89955400   -0.12423700
 C                  5.42823400   -1.91652900   -0.13429200
 C                  3.18071900   -0.81265800   -0.19929400
 N                  4.76094800    1.68818100   -0.32526100
 N                  7.43220000    1.71974100   -0.31231700
 H                  7.36315100   -2.84997500   -0.06690100
 H                  4.93637300   -2.87925400   -0.08999200
 C                  2.36184300   -1.93946700   -0.10488200
 C                  0.95850600   -1.67792200   -0.15315400
 C                  0.61106500   -0.33830600   -0.26938500
 C                 11.62783600   -0.20223000   -0.15382300
 C                 11.31256100   -1.55449200   -0.13002200
 C                  9.91592100   -1.85310400   -0.15139000
 C                  9.07026900   -0.74250200   -0.17585500
 C                 -7.70978700    0.62288700   -0.35781300
 C                 -6.94708200   -0.61742100   -0.35367600
 C                 -5.45729000   -0.60228800   -0.36505700
 C                 -4.72000100    0.65353300   -0.38633900
 C                 -5.51648200    1.80965100   -0.39312000
 C                 -6.93746100    1.79498100   -0.38189100
 C                 -9.15975900    0.64084900   -0.33809600
 N                 -7.52556300   -1.82833200   -0.33976100
 N                 -4.85406400   -1.80097200   -0.35454600
 H                 -5.02345100    2.77270800   -0.40681900
 H                 -7.45018900    2.74780800   -0.39077100
 C                -10.00150700    1.75245600   -0.27045200
 C                -11.39937100    1.45933400   -0.28574000
 C                -11.71889500    0.10940500   -0.35297200
 C                 -0.70134600    0.22566600   -0.33393000
 C                 -1.04867500    1.56623800   -0.43994200
 C                 -2.45201300    1.82861200   -0.48135600
 C                 -3.27091500    0.70111900   -0.39609500
 C                -20.01541900   -1.03439100   -0.23370600
 C                -19.27877100    0.22077800   -0.20803400
 C                -17.78999500    0.23731400   -0.25515000
 C                -17.02708100   -1.00184300   -0.32366800
 C                -17.79946300   -2.17447400   -0.33496600
 C                -19.21967800   -2.18950300   -0.29310800
 C                -21.46416100   -1.08343300   -0.19268800
 N                -19.88133900    1.41803000   -0.13873000
 N                -17.21167600    1.44767700   -0.22494200
 H                -17.28723100   -3.12665200   -0.37475500
 H                -19.71283300   -3.15258300   -0.30483500
 C                -22.28485100   -2.21085300   -0.26299100
 C                -23.68552800   -1.94963800   -0.17167900
 C                -24.02896500   -0.60996900   -0.04031400
 C                -13.01940000   -0.48420700   -0.37717800
 C                -13.33888100   -1.83340900   -0.45951900
 C                -14.73634000   -2.12728500   -0.46395700
 C                -15.57830900   -1.01750500   -0.36597900
 C                 29.27301800   -0.41003000    0.36637900
 C                 30.00683200    0.84588100    0.27778300
 C                 31.49572500    0.86880800    0.30689300
 C                 32.25990500   -0.36284100    0.42413400
 C                 31.49523300   -1.53269000    0.50824300
 C                 30.07155400   -1.55682400    0.47663600
 C                 27.82294900   -0.46350000    0.34045500
 N                 29.40020400    2.03721300    0.16576100
 N                 32.06986200    2.08008300    0.22159600
 H                 32.01163900   -2.47928400    0.60180600
 H                 29.58295900   -2.51984300    0.54296000
 C                 27.00690000   -1.58909700    0.46062300
 C                 25.60328400   -1.33482900    0.37804300
 C                 25.25427400   -0.00199600    0.20647300
 C                 36.24188500    0.16902900    0.50448800
 C                 35.97287400   -1.17229900    0.54403900
 C                 34.56250800   -1.48203400    0.50880700
 C                 33.71618100   -0.37818900    0.45251800
 H                 37.20813800    0.65000200    0.51753700
 O                -24.64834300   -2.96485100   -0.22469500
 O                -21.80007100   -3.52228000   -0.40333400
 O                -15.19849900   -3.45098300   -0.54990000
 O                -12.35773000   -2.83039500   -0.54522800
 O                -12.38057400    2.45745500   -0.22221700
 O                 -9.53965500    3.07779300   -0.19965600
 O                 -2.94115800    3.14134500   -0.59026600
 O                 -0.08813800    2.58397000   -0.51361400
 O                 -0.00188900   -2.69541400   -0.07421200
 O                  2.85111400   -3.25096400    0.01906500
 O                  9.45819700   -3.18159200   -0.13664000
 O                 12.29686600   -2.55167000   -0.10101200
 O                 12.25657600    2.74557000   -0.21226100
 O                 15.09464700    3.37671900   -0.17001000
 O                 21.69912200    3.44905900   -0.32648300
 O                 24.55140100    2.90514300   -0.16983500
 O                 24.64539400   -2.35320100    0.47638400
 O                 27.49821600   -2.89307000    0.63874800
 O                 34.11353900   -2.81279600    0.54428900
 O                 36.96322500   -2.16671300    0.59274400
 C                -24.09756800   -4.31062200    0.00375600
 C                -22.82669300   -4.49300900   -0.82718500
 C                -14.17448200   -4.41321700   -0.99875000
 C                -12.86504900   -4.17812200   -0.24445900
 C                -11.86987400    3.80326600   -0.52700500
 C                -10.56624100    4.04293300    0.23593500
 C                 -1.92885200    4.11922200   -1.03127600
 C                 -0.63213400    3.92410600   -0.24431600
 C                  0.54382300   -4.03716400   -0.33168700
 C                  1.83714000   -4.22594600    0.46232200
 C                 10.49648500   -4.17461100   -0.46997200
 C                 11.78231400   -3.87008800    0.30016700
 C                 12.77198100    4.06184900   -0.61927800
 C                 14.05483600    4.37145100    0.15376700
 C                 22.71778100    4.41240900   -0.78466100
 C                 23.99851600    4.25305600    0.03569800
 C                 25.20041900   -3.69959300    0.26884800
 C                 26.47939000   -3.85897600    1.09195600
 C                 35.16527000   -3.80455000    0.24775200
 C                 36.44069400   -3.47245500    1.02415000
 H                -24.88325900   -5.00444100   -0.30501900
 H                -22.37877400   -5.47690700   -0.66610400
 H                -23.03861500   -4.34672100   -1.89437100
 H                -23.88431900   -4.43712800    1.07342900
 H                -13.01763100   -4.27526700    0.83874500
 H                -12.08252800   -4.86594200   -0.57420800
 H                -14.59138700   -5.40048200   -0.78384700
 H                -14.02334400   -4.29594600   -2.07975700
 H                -11.70855500    3.89324100   -1.60953100
 H                -10.14785600    5.02885600    0.01779000
 H                -10.72555200    3.93289700    1.31657300
 H                -12.65501000    4.49326800   -0.20814000
 H                  0.14254400    4.62452800   -0.56601900
 H                 -1.75081700    3.98955900   -2.10678100
 H                 -0.81187800    4.03291800    0.83359600
 H                 -2.37183000    5.10017000   -0.84088000
 H                  0.72832500   -4.15347000   -1.40800800
 H                 -0.23187600   -4.73569700   -0.00834500
 H                  2.28133400   -5.20808300    0.28101200
 H                  1.65398200   -4.08866700    1.53604600
 H                 10.07477900   -5.14136600   -0.18314100
 H                 11.59685000   -3.87313300    1.38260700
 H                 12.57533400   -4.58097200    0.05531700
 H                 10.68039000   -4.15060900   -1.55203900
 H                 24.42164500   -4.39154800    0.59879300
 H                 26.27580200   -3.69015800    2.15741000
 H                 25.40512100   -3.84727600   -0.79996800
 H                 26.93098200   -4.84401800    0.94864300
 H                 34.74695500   -4.76721600    0.55305500
 H                 35.36067100   -3.80549600   -0.83267700
 H                 36.23979700   -3.44893600    2.10410400
 H                 37.23482400   -4.19244000    0.80988200
 H                 14.47735900    5.33659200   -0.13723100
 H                 24.77770800    4.94301100   -0.29741400
 H                 12.96138700    4.05863200   -1.70103600
 H                 13.86711100    4.35372200    1.23527700
 H                 22.91850100    4.24125500   -1.85032800
 H                 11.97774500    4.77377500   -0.38152000
 H                 22.26820900    5.39849000   -0.64223400
 H                 23.79653700    4.40307800    1.10465200
 C                -25.33690100   -0.04913900    0.08250900
 C                -25.68101700    1.29189100    0.22809500
 C                -27.07847200    1.54582800    0.33931100
 C                -27.88400900    0.41001100    0.29596200
 C                -25.26568800    3.57913100    0.81079100
 C                -26.62393100    3.89681200    0.17842400
 C                -29.31001500    0.41056000    0.39038400
 C                -30.17310200   -0.79399800    0.34008700
 C                -31.69013200   -0.71030900    0.45585900
 C                -32.39396000    0.57868500    0.62561800
 C                -30.15950500    1.49635000    0.54575500
 C                -31.41892200    1.56386000    0.64211100
 C                -33.81541100    0.74187700    0.74809100
 C                -34.47827000    1.95307200    0.89952400
 C                -35.91228100    1.84652200    1.00126200
 C                -36.37290600    0.55755900    0.92030200
 C                -34.71156400    4.33846900    0.78588800
 C                -35.98703900    4.15824000    1.61417700
 O                -24.73248300    2.32185000    0.25542600
 O                -27.59755400    2.83189000    0.49392800
 O                -33.81386000    3.17921700    0.96479400
 O                -36.73352900    2.97381000    1.15162700
 N                -29.67123600   -2.02274600    0.19504400
 N                -32.33919200   -1.87828100    0.39856200
 H                -37.39544800    0.21565900    0.97126800
 H                -25.35839100    3.47923700    1.90037000
 H                -24.52348400    4.34316900    0.56734700
 H                -27.05420000    4.81287900    0.59051000
 H                -26.53207800    3.98206200   -0.91210500
 H                -34.13407600    5.20360000    1.12114000
 H                -34.95389600    4.43915300   -0.28020400
 H                -35.74196700    4.04010700    2.67846300
 H                -36.66783700    5.00287700    1.48089700
 S                -35.02760100   -0.62039900    0.71300200
 S                -26.85492900   -1.08024300    0.08682200
 S                -22.50962900    0.41254200   -0.02739800
 S                -14.55839000    0.50393300   -0.28997300
 S                -10.17912200   -0.88068700   -0.40490100
 S                 -2.21997100   -0.79616500   -0.28120100
 S                  2.12972100    0.68292000   -0.33433900
 S                 10.08532500    0.78368800   -0.19781100
 S                 14.46890900   -0.58828700   -0.08598300
 S                 22.42455600   -0.46902000    0.16631500
 S                 26.77000000    1.02215100    0.13333200
 S                 34.73674200    1.14453400    0.41924300
 Se               -31.08452400   -3.25993200    0.18733100
 Se               -18.55909700    2.74789300   -0.12820700
 Se                -6.17627900   -3.13067400   -0.33386600
 Se                 6.08151600    3.01831500   -0.38722200
 Se                18.47508800   -2.81444400    0.19078300
 Se                30.71685600    3.36912000    0.08591800

 1 2 1.0 6 1.5 7 1.0
 2 3 1.0 8 1.5
 3 4 1.0 9 1.5
 4 5 1.5 18 1.0
 5 6 1.5 10 1.0
 6 11 1.0
 7 12 1.5 213 1.0
 8 221 1.0
 9 221 1.0
 10
 11
 12 13 1.5 105 1.0
 13 14 1.5 104 1.0
 14 33 1.5 213 1.0
 15 16 1.5 86 1.5 214 1.0
 16 17 1.5 107 1.0
 17 18 1.5 106 1.0
 18 214 1.0
 19 20 1.0 24 1.5 25 1.0
 20 21 1.0 26 1.5
 21 22 1.0 27 1.5
 22 23 1.5 36 1.0
 23 24 1.5 28 1.0
 24 29 1.0
 25 30 1.5 211 1.0
 26 220 1.0
 27 220 1.0
 28
 29
 30 31 1.5 101 1.0
 31 32 1.5 100 1.0
 32 51 1.5 211 1.0
 33 34 1.5 212 1.0
 34 35 1.5 103 1.0
 35 36 1.5 102 1.0
 36 212 1.0
 37 38 1.0 42 1.5 43 1.0
 38 39 1.0 44 1.5
 39 40 1.0 45 1.5
 40 41 1.5 54 1.0
 41 42 1.5 46 1.0
 42 47 1.0
 43 48 1.5 209 1.0
 44 219 1.0
 45 219 1.0
 46
 47
 48 49 1.5 97 1.0
 49 50 1.5 96 1.0
 50 69 1.5 209 1.0
 51 52 1.5 210 1.0
 52 53 1.5 99 1.0
 53 54 1.5 98 1.0
 54 210 1.0
 55 56 1.0 60 1.5 61 1.0
 56 57 1.0 62 1.5
 57 58 1.0 63 1.5
 58 59 1.5 72 1.0
 59 60 1.5 64 1.0
 60 65 1.0
 61 66 1.5 207 1.0
 62 218 1.0
 63 218 1.0
 64
 65
 66 67 1.5 93 1.0
 67 68 1.5 92 1.0
 68 172 1.5 207 1.0
 69 70 1.5 208 1.0
 70 71 1.5 95 1.0
 71 72 1.5 94 1.0
 72 208 1.0
 73 74 1.0 78 1.5 79 1.0
 74 75 1.0 80 1.5
 75 76 1.0 81 1.5
 76 77 1.5 90 1.0
 77 78 1.5 82 1.0
 78 83 1.0
 79 84 1.5 215 1.0
 80 222 1.0
 81 222 1.0
 82
 83
 84 85 1.5 109 1.0
 85 86 1.5 108 1.0
 86 215 1.0
 87 88 2.0 91 1.0 216 1.0
 88 89 1.5 111 1.0
 89 90 1.5 110 1.0
 90 216 1.0
 91
 92 112 1.0
 93 113 1.0
 94 114 1.0
 95 115 1.0
 96 116 1.0
 97 117 1.0
 98 118 1.0
 99 119 1.0
 100 120 1.0
 101 121 1.0
 102 122 1.0
 103 123 1.0
 104 124 1.0
 105 125 1.0
 106 126 1.0
 107 127 1.0
 108 128 1.0
 109 129 1.0
 110 130 1.0
 111 131 1.0
 112 113 1.0 132 1.0 135 1.0
 113 133 1.0 134 1.0
 114 115 1.0 138 1.0 139 1.0
 115 136 1.0 137 1.0
 116 117 1.0 140 1.0 143 1.0
 117 141 1.0 142 1.0
 118 119 1.0 145 1.0 147 1.0
 119 144 1.0 146 1.0
 120 121 1.0 148 1.0 149 1.0
 121 150 1.0 151 1.0
 122 123 1.0 152 1.0 155 1.0
 123 153 1.0 154 1.0
 124 125 1.0 166 1.0 169 1.0
 125 164 1.0 167 1.0
 126 127 1.0 168 1.0 170 1.0
 127 165 1.0 171 1.0
 128 129 1.0 156 1.0 158 1.0
 129 157 1.0 159 1.0
 130 131 1.0 160 1.0 161 1.0
 131 162 1.0 163 1.0
 132
 133
 134
 135
 136
 137
 138
 139
 140
 141
 142
 143
 144
 145
 146
 147
 148
 149
 150
 151
 152
 153
 154
 155
 156
 157
 158
 159
 160
 161
 162
 163
 164
 165
 166
 167
 168
 169
 170
 171
 172 173 1.5 206 1.0
 173 174 1.5 190 1.0
 174 175 1.5 191 1.0
 175 178 1.5 206 1.0
 176 177 1.0 190 1.0 197 1.0 198 1.0
 177 191 1.0 199 1.0 200 1.0
 178 179 1.0 182 1.5
 179 180 1.0 194 1.5
 180 181 1.0 195 1.5
 181 183 1.5 184 1.5
 182 183 2.0
 183
 184 185 1.5 205 1.0
 185 186 1.5 192 1.0
 186 187 2.0 193 1.0
 187 196 1.0 205 1.0
 188 189 1.0 192 1.0 201 1.0 202 1.0
 189 193 1.0 203 1.0 204 1.0
 190
 191
 192
 193
 194 217 1.0
 195 217 1.0
 196
 197
 198
 199
 200
 201
 202
 203
 204
 205
 206
 207
 208
 209
 210
 211
 212
 213
 214
 215
 216
 217
 218
 219
 220
 221
 222

