%chk=B-STeS6.chk
%mem=600MW
# td=(nstates=10) b3lyp/lanl2dz 

B-STeS6

0 1
 C                 16.96285200    0.83627100   -0.06417500
 C                 17.71591700   -0.41190000    0.03790900
 C                 19.21773800   -0.39924800    0.05260300
 C                 19.95071000    0.86114000   -0.03850200
 C                 19.15843700    2.01408600   -0.13502900
 C                 17.73719700    2.00219900   -0.15078600
 C                 15.51240800    0.86039500   -0.07614700
 N                 17.10032600   -1.59800900    0.11976200
 N                 19.85163600   -1.57463700    0.15159500
 H                 19.65342900    2.97384100   -0.20220800
 H                 17.22765700    2.95302600   -0.23383200
 C                 14.67530800    1.97739400   -0.11756200
 C                 13.27589100    1.69177100   -0.13823900
 C                 12.94766700    0.34296900   -0.09915700
 C                 23.97271200    0.44559700    0.09019800
 C                 23.62352800    1.77854400   -0.08009800
 C                 22.21978400    2.03431900   -0.15295700
 C                 21.40101200    0.91048600   -0.02676800
 C                  4.63979800   -0.75672700   -0.13571000
 C                  5.37409300    0.50479300   -0.20083500
 C                  6.87597200    0.51550300   -0.19623200
 C                  7.62806700   -0.73524100   -0.12615900
 C                  6.85271600   -1.90221800   -0.06335300
 C                  5.43155500   -1.91264900   -0.07270300
 C                  3.18975900   -0.80328200   -0.13871700
 N                  4.74105900    1.68279400   -0.26752800
 N                  7.49241000    1.70259900   -0.25584300
 H                  7.36174300   -2.85515400   -0.00459100
 H                  4.93590600   -2.87331300   -0.02706000
 C                  2.36915000   -1.92959500   -0.04810600
 C                  0.96565400   -1.66855800   -0.09648600
 C                  0.61757500   -0.32877400   -0.20803600
 C                 11.64362400   -0.24409800   -0.10312500
 C                 11.31512700   -1.59299300   -0.07170800
 C                  9.91553800   -1.87808100   -0.09033800
 C                  9.07859200   -0.76055700   -0.11927200
 C                 -7.70457500    0.64702100   -0.31450500
 C                 -6.95416200   -0.60643200   -0.31717800
 C                 -5.45228800   -0.59738700   -0.32177500
 C                 -4.71680200    0.66528000   -0.33224100
 C                 -5.50720500    1.82381300   -0.33319000
 C                 -6.92842500    1.81501400   -0.32683900
 C                 -9.15510700    0.67486100   -0.30004200
 N                 -7.57187600   -1.79449400   -0.31525800
 N                 -4.82022100   -1.77772600   -0.31644100
 H                 -5.01074400    2.78514400   -0.33818400
 H                 -7.43655000    2.77029100   -0.33031800
 C                 -9.98890800    1.79256200   -0.22726800
 C                -11.38943100    1.51269700   -0.25224200
 C                -11.72125600    0.16651900   -0.33270900
 C                 -0.69486700    0.23565600   -0.27167800
 C                 -1.04301500    1.57655900   -0.36977700
 C                 -2.44652800    1.83813400   -0.41330000
 C                 -3.26695300    0.71061000   -0.33799900
 C                -20.02879700   -0.92267200   -0.25938700
 C                -19.29441500    0.33886400   -0.21542900
 C                -17.79348100    0.34998900   -0.25747200
 C                -17.04232900   -0.90134200   -0.33801700
 C                -17.81818800   -2.06964300   -0.36565500
 C                -19.23872100   -2.07933200   -0.32926700
 C                -21.47835600   -0.97023300   -0.22401200
 N                -19.92631000    1.51674900   -0.13393000
 N                -17.17632700    1.53714000   -0.21288700
 H                -17.31023300   -3.02362800   -0.41450100
 H                -19.73511000   -3.04045500   -0.35409400
 C                -22.29976300   -2.09647500   -0.31020600
 C                -23.70092700   -1.83792500   -0.21843800
 C                -24.04617300   -0.50054300   -0.07058800
 C                -13.02685000   -0.41562800   -0.36899200
 C                -13.35844000   -1.76083200   -0.46658800
 C                -14.75859200   -2.04164800   -0.48088400
 C                -15.59287800   -0.92635200   -0.37507000
 C                 29.30876900   -0.52661700    0.32707800
 C                 30.04207800    0.73425700    0.22241300
 C                 31.54327600    0.74910500    0.24010800
 C                 32.29392800   -0.49612100    0.36110200
 C                 31.52448500   -1.65981800    0.46008000
 C                 30.10026500   -1.67620500    0.43964800
 C                 27.85769100   -0.57562700    0.31244400
 N                 29.40745400    1.90709700    0.10732000
 N                 32.15772700    1.93627500    0.14393800
 H                 32.03578300   -2.60884700    0.55695000
 H                 29.60745500   -2.63620200    0.51677500
 C                 27.03966800   -1.69909600    0.44279800
 C                 25.63557100   -1.44435400    0.36871000
 C                 25.28605000   -0.11207000    0.19452700
 C                 36.28392800   -0.00336900    0.40994300
 C                 36.00126800   -1.34121000    0.46096200
 C                 34.58744500   -1.63620900    0.43713200
 C                 33.75091200   -0.52466400    0.37840600
 H                 37.25564100    0.46683800    0.41286500
 O                -24.66256700   -2.85504600   -0.28632900
 O                -21.81378000   -3.40687800   -0.46527800
 O                -15.23198900   -3.36132100   -0.58281200
 O                -12.38605500   -2.76766700   -0.55774500
 O                -12.36162300    2.52117400   -0.18535200
 O                 -9.51553900    3.11414800   -0.14343900
 O                 -2.93589800    3.15248400   -0.51443500
 O                 -0.08306300    2.59722300   -0.43436500
 O                  0.00565000   -2.68851000   -0.02196000
 O                  2.85842300   -3.24256400    0.07164700
 O                  9.44540800   -3.20321500   -0.06829200
 O                 12.28976000   -2.60126700   -0.03819200
 O                 12.30115800    2.69960100   -0.18100400
 O                 15.14512600    3.30231100   -0.14875200
 O                 21.72929300    3.34064600   -0.32757200
 O                 24.58189400    2.79696400   -0.18563800
 O                 24.67786800   -2.46361700    0.47721900
 O                 27.53098500   -3.00391600    0.62218300
 O                 34.12595000   -2.96325900    0.48577900
 O                 36.98210800   -2.34598500    0.51009500
 C                -24.10991100   -4.20158800   -0.07185600
 C                -22.83785700   -4.37248700   -0.90338000
 C                -14.21547100   -4.32676000   -1.03840300
 C                -12.90845300   -4.11260900   -0.27391600
 C                -11.83563400    3.86335900   -0.47686300
 C                -10.53455200    4.08401400    0.29597200
 C                 -1.92399300    4.13284000   -0.94734300
 C                 -0.62982000    3.93392800   -0.15721100
 C                  0.55324000   -4.02793200   -0.28376400
 C                  1.84530800   -4.21827800    0.51181800
 C                 10.47293300   -4.20678900   -0.39874300
 C                 11.76159400   -3.91138900    0.37010800
 C                 12.82990200    4.00672800   -0.59799400
 C                 14.11663200    4.30829000    0.17170600
 C                 22.74486600    4.30141700   -0.79454800
 C                 24.02934300    4.14423100    0.02027300
 C                 25.23187600   -3.80969900    0.26949000
 C                 26.51542800   -3.96680700    1.08575900
 C                 35.16507100   -3.96628200    0.18596800
 C                 36.44918300   -3.64361200    0.95196300
 H                -24.89380300   -4.89392300   -0.38887300
 H                -22.38923000   -5.35813300   -0.75474600
 H                -23.04925600   -4.21274200   -1.96886100
 H                -23.89664400   -4.33989000    0.99647900
 H                -13.06963100   -4.21983700    0.80721700
 H                -12.13104400   -4.80538100   -0.60585600
 H                -14.64255000   -5.31295000   -0.83853700
 H                -14.05638400   -4.19754600   -2.11703000
 H                -11.66559000    3.96029900   -1.55757300
 H                -10.10582600    5.06827600    0.09021600
 H                -10.70198000    3.96512900    1.37457000
 H                -12.61554700    4.55945600   -0.15795200
 H                  0.14471400    4.63838300   -0.47082700
 H                 -1.74166600    4.00920700   -2.02296500
 H                 -0.81453300    4.03515300    0.92072600
 H                 -2.36819700    5.11265200   -0.75341200
 H                  0.74081500   -4.14033100   -1.36010000
 H                 -0.22195700   -4.72921900    0.03526900
 H                  2.29008800   -5.20007000    0.32947600
 H                  1.65974200   -4.08337900    1.58555600
 H                 10.04215400   -5.16867900   -0.10868100
 H                 11.57479700   -3.90696400    1.45244200
 H                 12.54704000   -4.63236400    0.12976500
 H                 10.65761600   -4.18853000   -1.48091700
 H                 24.45543200   -4.50169600    0.60523700
 H                 26.31744500   -3.79354000    2.15167600
 H                 25.43153900   -3.96025100   -0.80000800
 H                 26.96562100   -4.95285500    0.94423900
 H                 34.73951500   -4.92361600    0.49819600
 H                 35.35343300   -3.97399400   -0.89578600
 H                 36.25529600   -3.61244000    2.03307500
 H                 37.23436600   -4.37312200    0.73654600
 H                 14.54803600    5.26798400   -0.12460100
 H                 24.80634000    4.83469800   -0.31734200
 H                 13.01925600    3.99415800   -1.67982100
 H                 13.92949300    4.29813900    1.25354100
 H                 22.94121000    4.12642000   -1.86053700
 H                 12.04368700    4.72928100   -0.36504200
 H                 22.29632400    5.28833700   -0.65390800
 H                 23.83114100    4.29642600    1.08975900
 C                -25.35484100    0.05778000    0.05737900
 C                -25.70125600    1.39609500    0.22231600
 C                -27.09928800    1.64638300    0.33481000
 C                -27.90468900    0.51114700    0.27285200
 C                -25.29170500    3.67425200    0.84330700
 C                -26.64878800    4.00040000    0.21271100
 C                -29.33092900    0.51083000    0.36622400
 C                -30.19230500   -0.70016000    0.29520400
 C                -31.72450500   -0.61174200    0.41410300
 C                -32.41525700    0.68679100    0.60465800
 C                -30.17674600    1.59469000    0.53841400
 C                -31.43638900    1.66537500    0.63607600
 C                -33.83566700    0.85903200    0.73033200
 C                -34.48948500    2.07262900    0.90154000
 C                -35.92430700    1.97640100    1.00224700
 C                -36.39562600    0.69291400    0.90088900
 C                -34.70378400    4.46106600    0.82388700
 C                -35.98035600    4.27942300    1.65024400
 O                -24.75445500    2.42864000    0.26736400
 O                -27.62076800    2.92988300    0.50922100
 O                -33.81529000    3.29321100    0.98680800
 O                -36.73665000    3.10833000    1.17087800
 N                -29.66103700   -1.90959300    0.12947800
 N                -32.40938700   -1.75405600    0.34314900
 H                -37.42118900    0.35930300    0.94687300
 H                -25.38815900    3.55534200    1.93076200
 H                -24.55062700    4.44448500    0.61591200
 H                -27.08124400    4.90957000    0.63782500
 H                -26.55357900    4.10316700   -0.87614800
 H                -34.11977100    5.31739000    1.17046700
 H                -34.94637400    4.57844000   -0.24054800
 H                -35.73513900    4.14368200    2.71246100
 H                -36.65424700    5.13163900    1.53016500
 S                -35.05894400   -0.49295500    0.67409000
 S                -26.87400100   -0.97487100    0.04292900
 S                -22.52522100    0.52356700   -0.04283800
 S                -14.56001800    0.58573300   -0.27911200
 S                -10.18758700   -0.83748000   -0.38379900
 S                 -2.21578000   -0.78764300   -0.23076400
 S                  2.13873600    0.69333500   -0.26873200
 S                 10.10779500    0.75651500   -0.15017400
 S                 14.48351400   -0.65672300   -0.03724500
 S                 22.45330000   -0.57734800    0.17230700
 S                 26.80472200    0.91091000    0.10729800
 S                 34.78708000    0.98775800    0.32672100
 Te               -31.13045000   -3.30993400    0.08911000
 Te               -18.55987300    3.01338000   -0.09515900
 Te                -6.18702900   -3.27456600   -0.31124200
 Te                 6.10652700    3.17912000   -0.34107000
 Te                18.48705400   -3.07042600    0.24941900
 Te                30.76954900    3.40305600   -0.00784400

 1 2 1.0 6 1.5 7 1.0
 2 3 1.0 8 1.5
 3 4 1.0 9 1.5
 4 5 1.5 18 1.0
 5 6 1.5 10 1.0
 6 11 1.0
 7 12 1.5 213 1.0
 8 221 1.0
 9 221 1.0
 10
 11
 12 13 1.5 105 1.0
 13 14 1.5 104 1.0
 14 33 1.5 213 1.0
 15 16 1.5 86 1.5 214 1.0
 16 17 1.5 107 1.0
 17 18 1.5 106 1.0
 18 214 1.0
 19 20 1.0 24 1.5 25 1.0
 20 21 1.0 26 1.5
 21 22 1.0 27 1.5
 22 23 1.5 36 1.0
 23 24 1.5 28 1.0
 24 29 1.0
 25 30 1.5 211 1.0
 26 220 1.0
 27 220 1.0
 28
 29
 30 31 1.5 101 1.0
 31 32 1.5 100 1.0
 32 51 1.5 211 1.0
 33 34 1.5 212 1.0
 34 35 1.5 103 1.0
 35 36 1.5 102 1.0
 36 212 1.0
 37 38 1.0 42 1.5 43 1.0
 38 39 1.0 44 1.5
 39 40 1.0 45 1.5
 40 41 1.5 54 1.0
 41 42 1.5 46 1.0
 42 47 1.0
 43 48 1.5 209 1.0
 44 219 1.0
 45 219 1.0
 46
 47
 48 49 1.5 97 1.0
 49 50 1.5 96 1.0
 50 69 1.5 209 1.0
 51 52 1.5 210 1.0
 52 53 1.5 99 1.0
 53 54 1.5 98 1.0
 54 210 1.0
 55 56 1.0 60 1.5 61 1.0
 56 57 1.0 62 1.5
 57 58 1.0 63 1.5
 58 59 1.5 72 1.0
 59 60 1.5 64 1.0
 60 65 1.0
 61 66 1.5 207 1.0
 62 218 1.0
 63 218 1.0
 64
 65
 66 67 1.5 93 1.0
 67 68 1.5 92 1.0
 68 172 1.5 207 1.0
 69 70 1.5 208 1.0
 70 71 1.5 95 1.0
 71 72 1.5 94 1.0
 72 208 1.0
 73 74 1.0 78 1.5 79 1.0
 74 75 1.0 80 1.5
 75 76 1.0 81 1.5
 76 77 1.5 90 1.0
 77 78 1.5 82 1.0
 78 83 1.0
 79 84 1.5 215 1.0
 80 222 1.0
 81 222 1.0
 82
 83
 84 85 1.5 109 1.0
 85 86 1.5 108 1.0
 86 215 1.0
 87 88 2.0 91 1.0 216 1.0
 88 89 1.5 111 1.0
 89 90 1.5 110 1.0
 90 216 1.0
 91
 92 112 1.0
 93 113 1.0
 94 114 1.0
 95 115 1.0
 96 116 1.0
 97 117 1.0
 98 118 1.0
 99 119 1.0
 100 120 1.0
 101 121 1.0
 102 122 1.0
 103 123 1.0
 104 124 1.0
 105 125 1.0
 106 126 1.0
 107 127 1.0
 108 128 1.0
 109 129 1.0
 110 130 1.0
 111 131 1.0
 112 113 1.0 132 1.0 135 1.0
 113 133 1.0 134 1.0
 114 115 1.0 138 1.0 139 1.0
 115 136 1.0 137 1.0
 116 117 1.0 140 1.0 143 1.0
 117 141 1.0 142 1.0
 118 119 1.0 145 1.0 147 1.0
 119 144 1.0 146 1.0
 120 121 1.0 148 1.0 149 1.0
 121 150 1.0 151 1.0
 122 123 1.0 152 1.0 155 1.0
 123 153 1.0 154 1.0
 124 125 1.0 166 1.0 169 1.0
 125 164 1.0 167 1.0
 126 127 1.0 168 1.0 170 1.0
 127 165 1.0 171 1.0
 128 129 1.0 156 1.0 158 1.0
 129 157 1.0 159 1.0
 130 131 1.0 160 1.0 161 1.0
 131 162 1.0 163 1.0
 132
 133
 134
 135
 136
 137
 138
 139
 140
 141
 142
 143
 144
 145
 146
 147
 148
 149
 150
 151
 152
 153
 154
 155
 156
 157
 158
 159
 160
 161
 162
 163
 164
 165
 166
 167
 168
 169
 170
 171
 172 173 1.5 206 1.0
 173 174 1.5 190 1.0
 174 175 1.5 191 1.0
 175 178 1.5 206 1.0
 176 177 1.0 190 1.0 197 1.0 198 1.0
 177 191 1.0 199 1.0 200 1.0
 178 179 1.0 182 2.0
 179 180 1.0 194 1.5
 180 181 1.0 195 1.5
 181 183 2.0 184 1.5
 182 183 2.0
 183
 184 185 1.5 205 1.0
 185 186 1.5 192 1.0
 186 187 2.0 193 1.0
 187 196 1.0 205 1.0
 188 189 1.0 192 1.0 201 1.0 202 1.0
 189 193 1.0 203 1.0 204 1.0
 190
 191
 192
 193
 194 217 1.0
 195 217 1.0
 196
 197
 198
 199
 200
 201
 202
 203
 204
 205
 206
 207
 208
 209
 210
 211
 212
 213
 214
 215
 216
 217
 218
 219
 220
 221
 222

