%chk=B-TeTeTe6.chk
%mem=600MW
# td=(nstates=10) b3lyp/lanl2dz 

B-TeTeTe6

0 1
 C                 17.61197900    0.70419000   -0.08960900
 C                 18.36535900   -0.54011500    0.02331800
 C                 19.85471900   -0.53913700    0.03119200
 C                 20.60657600    0.70426700   -0.08608600
 C                 19.81922500    1.86705600   -0.19716000
 C                 18.39921500    1.86716200   -0.20130200
 C                 16.16740300    0.65788700   -0.08086900
 N                 17.74226300   -1.72312500    0.12557300
 N                 20.47828300   -1.72105600    0.15034200
 H                 20.32768800    2.81821600   -0.28264300
 H                 17.89092600    2.81758200   -0.29440800
 C                 15.28817200    1.74502600   -0.14327900
 C                 13.87861600    1.49028800   -0.13375900
 C                 13.41760200    0.17928500   -0.04250300
 C                 24.80074300    0.18949300    0.03304100
 C                 24.34050100    1.49216800   -0.13565900
 C                 22.93039100    1.74064200   -0.20258900
 C                 22.05218600    0.65999400   -0.07263200
 C                  4.85322600   -0.72610200    0.01273400
 C                  5.60528900    0.52238800   -0.03775000
 C                  7.09469800    0.52299100   -0.04117600
 C                  7.84801200   -0.72447200    0.01485000
 C                  7.06089900   -1.89208500    0.07067100
 C                  5.64154700   -1.89322000    0.06213200
 C                  3.40864700   -0.68084900    0.00183300
 N                  4.98120100    1.70863800   -0.08743500
 N                  7.71753800    1.70977100   -0.09451800
 H                  7.56975100   -2.84547200    0.12072900
 H                  5.13377100   -2.84790100    0.09571500
 C                  2.52998800   -1.76939800    0.04450900
 C                  1.12075700   -1.51722500    0.00276500
 C                  0.65866500   -0.20404500   -0.04326800
 C                 12.04212800   -0.19708600   -0.02410400
 C                 11.58178600   -1.50914200    0.05436200
 C                 10.17246400   -1.76500200    0.05609700
 C                  9.29265300   -0.67752100    0.01184700
 C                 -7.90550200    0.68822100   -0.16105000
 C                 -7.15207000   -0.55939500   -0.19652800
 C                 -5.66291100   -0.55856000   -0.17320800
 C                 -4.91123200    0.69112800   -0.13706000
 C                 -5.69996800    1.85875700   -0.10983100
 C                 -7.11933100    1.85713500   -0.12128600
 C                 -9.35021800    0.64126800   -0.17382400
 N                 -7.77427400   -1.74682600   -0.24829700
 N                 -5.03837500   -1.74528600   -0.18975600
 H                 -5.19281200    2.81380500   -0.07728000
 H                 -7.62883500    2.81132000   -0.09911300
 C                -10.23034800    1.72652500   -0.09858400
 C                -11.63926100    1.47354400   -0.14945700
 C                -12.09874700    0.16272800   -0.25339600
 C                 -0.71682300    0.17014900   -0.07932100
 C                 -1.17956900    1.48368800   -0.10680300
 C                 -2.58890200    1.73591200   -0.14067200
 C                 -3.46698900    0.64592400   -0.12757300
 C                -20.65998400   -0.74783600   -0.33800100
 C                -19.91100100    0.49768100   -0.23685500
 C                -18.42213300    0.50241300   -0.25655900
 C                -17.66633800   -0.74115500   -0.36900700
 C                -18.45171400   -1.90841200   -0.45251300
 C                -19.87106600   -1.91085500   -0.43957900
 C                -22.10508000   -0.70663400   -0.31244100
 N                -20.53704200    1.67861800   -0.11727200
 N                -17.80138200    1.68676400   -0.15781900
 H                -17.94204400   -2.85967400   -0.52670300
 H                -20.37830600   -2.86422100   -0.50665300
 C                -22.98223600   -1.79032800   -0.42569700
 C                -24.39056000   -1.54393200   -0.34211700
 C                -24.85099300   -0.24062100   -0.17286700
 C                -13.47339400   -0.21211300   -0.30919300
 C                -13.93297600   -1.52182400   -0.42728400
 C                -15.34157000   -1.77437400   -0.47644300
 C                -16.22262700   -0.69142000   -0.37045200
 C                 30.37233700   -0.69511100    0.24409300
 C                 31.12813000    0.54729000    0.10169800
 C                 32.61698400    0.54682900    0.11090200
 C                 33.36429800   -0.69233500    0.26038900
 C                 32.58143300   -1.84887800    0.39710300
 C                 31.15682700   -1.85264200    0.38468500
 C                 28.92595200   -0.64855900    0.22341400
 N                 30.50682900    1.72546700   -0.04444700
 N                 33.24153300    1.72841100   -0.02295400
 H                 33.09085900   -2.79624500    0.51720400
 H                 30.65040700   -2.80276700    0.48857900
 C                 28.04836500   -1.72855100    0.36082100
 C                 26.63780900   -1.48222300    0.28892300
 C                 26.17687400   -0.18086500    0.11386600
 C                 37.52711500   -0.16071900    0.21569100
 C                 37.12666600   -1.46138700    0.35662700
 C                 35.69473000   -1.72880400    0.36953000
 C                 34.81753500   -0.65615700    0.25980200
 H                 38.56873700    0.13844900    0.19825900
 O                -25.33090800   -2.59753900   -0.43955700
 O                -22.50039000   -3.10858800   -0.59951300
 O                -15.82274800   -3.09649500   -0.60943300
 O                -12.99145600   -2.57715500   -0.50776000
 O                -12.58040500    2.52944000   -0.08221200
 O                 -9.74943400    3.05193300    0.00982300
 O                 -3.07319600    3.06370700   -0.17045200
 O                 -0.24088900    2.54448100   -0.11310400
 O                  0.18143100   -2.57724800    0.02043000
 O                  3.01346800   -3.09653500    0.10832000
 O                  9.69053700   -3.09269700    0.11964000
 O                 12.52241400   -2.56636100    0.11670900
 O                 12.93874200    2.54787500   -0.20235800
 O                 15.77087300    3.07081300   -0.23101200
 O                 22.44814400    3.05851100   -0.37706000
 O                 25.28000200    2.54573600   -0.25000300
 O                 25.69929500   -2.53706200    0.40558300
 O                 28.53148800   -3.04330100    0.54717900
 O                 35.22036600   -3.05098300    0.51109000
 O                 38.06767800   -2.51356300    0.46186000
 C                -24.77680200   -3.94251100   -0.23933400
 C                -23.49988800   -4.07889800   -1.06607000
 C                -14.82749700   -4.08316800   -1.05059900
 C                -13.54042500   -3.91282000   -0.24640700
 C                -12.03250400    3.86333900   -0.35634800
 C                -10.74393600    4.04216200    0.44372500
 C                 -2.08120200    4.08321800   -0.53757000
 C                 -0.79189200    3.85572900    0.24891800
 C                  0.73476300   -3.89621900   -0.30846600
 C                  2.01828000   -4.10648500    0.49201100
 C                 10.68225300   -4.13420100   -0.17975300
 C                 11.97686900   -3.84797800    0.57841000
 C                 13.48222400    3.82151800   -0.68782700
 C                 14.78200000    4.11843000    0.05742300
 C                 23.44351500    4.03010500   -0.84962000
 C                 24.72858200    3.88915600   -0.03656100
 C                 26.25419500   -3.87884400    0.19297200
 C                 27.53515500   -4.01800500    1.01264700
 C                 36.22323900   -4.10549500    0.28992100
 C                 37.51695300   -3.75253700    1.02014700
 H                -25.55158500   -4.63806600   -0.57307100
 H                -23.03734900   -5.06116500   -0.93586000
 H                -23.71087600   -3.90255800   -2.12935000
 H                -24.56791900   -4.09591100    0.82780600
 H                -13.73575100   -4.02511100    0.82858300
 H                -12.76927700   -4.62063800   -0.56245600
 H                -15.28760600   -5.05994200   -0.87728300
 H                -14.63034300   -3.94695000   -2.12234100
 H                -11.83943000    3.96551400   -1.43268000
 H                -10.28518200    5.01761300    0.25965800
 H                -10.93882300    3.91686100    1.51727700
 H                -12.80393900    4.57328400   -0.04577300
 H                 -0.02264600    4.58688800   -0.01417600
 H                 -1.88609900    4.02951100   -1.61699500
 H                 -0.98487500    3.88605700    1.32973100
 H                 -2.54294600    5.04294900   -0.28950700
 H                  0.93584500   -3.95054000   -1.38687500
 H                 -0.03661500   -4.62120200   -0.03468700
 H                  2.48079600   -5.07208300    0.26940700
 H                  1.81540500   -4.02778100    1.56850500
 H                 10.22466700   -5.07427500    0.14071800
 H                 11.79181000   -3.79893300    1.65996900
 H                 12.74553300   -4.59547500    0.36399500
 H                 10.86996600   -4.15851900   -1.26158200
 H                 25.48291100   -4.57838300    0.52659600
 H                 27.32881200   -3.84674900    2.07757700
 H                 26.45816200   -4.02636100   -0.87616100
 H                 27.99981900   -4.99842100    0.87582300
 H                 35.77019800   -5.02129900    0.68003800
 H                 36.40715500   -4.20791400   -0.78798400
 H                 37.32977500   -3.62721200    2.09615300
 H                 38.28531300   -4.51508700    0.86475900
 H                 15.23881300    5.05253700   -0.28108100
 H                 25.49990600    4.58653600   -0.37463500
 H                 13.65993800    3.75533400   -1.76970200
 H                 14.60134500    4.16046400    1.13987000
 H                 23.64391000    3.85753800   -1.91557100
 H                 12.71570000    4.57311300   -0.48023300
 H                 22.98239100    5.01199700   -0.71129600
 H                 24.53040200    4.03792300    1.03342100
 C                -26.22446600    0.12290500   -0.06225100
 C                -26.69130900    1.42552100    0.11961000
 C                -28.09644300    1.65451900    0.23203700
 C                -28.95204900    0.55148600    0.16969300
 C                -26.31774400    3.72667200    0.77697900
 C                -27.67433900    4.03535100    0.14137500
 C                -30.37120300    0.62702000    0.26944500
 C                -31.23303500   -0.58365600    0.19079000
 C                -32.75227400   -0.50652200    0.30440400
 C                -33.46091700    0.77769500    0.49895700
 C                -31.22709900    1.70846400    0.44635500
 C                -32.48788000    1.76807300    0.54028100
 C                -34.88757400    0.85304900    0.61025600
 C                -35.61901900    2.01983300    0.78456600
 C                -37.06468300    1.91367500    0.87741600
 C                -37.61349800    0.66158000    0.77076500
 C                -35.84744600    4.42890700    0.73961300
 C                -37.12221100    4.22862400    1.55935100
 O                -25.77045700    2.49785600    0.18195200
 O                -28.61966600    2.94357300    0.42035100
 O                -34.96633600    3.25799300    0.88669300
 O                -37.86409600    3.06606900    1.05055200
 N                -30.69192600   -1.79058900    0.01961200
 N                -33.43104900   -1.65656000    0.22467700
 H                -38.67860600    0.47226600    0.83173800
 H                -26.41878100    3.58982200    1.86193800
 H                -25.58673200    4.51146700    0.56512200
 H                -28.12805800    4.93124200    0.57331200
 H                -27.57086600    4.15489700   -0.94530300
 H                -35.26105100    5.27832200    1.10006600
 H                -36.09028500    4.56514800   -0.32275700
 H                -36.87688900    4.07500300    2.61960100
 H                -37.80156100    5.07916900    1.45565300
 Te               -36.16239200   -0.81852700    0.49982800
 Te               -27.86749900   -1.23270800   -0.11532100
 Te               -23.19431100    1.09785200   -0.08409500
 Te               -15.13367600    1.12041900   -0.20477100
 Te               -10.43841100   -1.17276500   -0.31367400
 Te                -2.37391600   -1.17049100   -0.09497400
 Te                 2.31687400    1.13511300   -0.07326600
 Te                10.38232900    1.13866400   -0.08808000
 Te                15.07661300   -1.15556500    0.05065900
 Te                23.14294900   -1.14318900    0.15959900
 Te                27.83363100    1.15118200   -0.02514100
 Te                35.90708200    1.14866300    0.05726000
 Te               -32.14690400   -3.20885700   -0.03306200
 Te               -19.17170200    3.17372700   -0.00162700
 Te                -6.40456100   -3.24267400   -0.26192900
 Te                 6.34860800    3.20506500   -0.15539500
 Te                19.11020600   -3.21271500    0.27696900
 Te                31.87566900    3.21213000   -0.21044500

 1 2 1.0 6 1.5 7 1.5
 2 3 1.0 8 1.5
 3 4 1.0 9 1.5
 4 5 1.5 18 1.5
 5 6 1.5 10 1.0
 6 11 1.0
 7 12 1.5 213 1.0
 8 221 1.0
 9 221 1.0
 10
 11
 12 13 1.5 105 1.0
 13 14 1.5 104 1.0
 14 33 1.5 213 1.0
 15 16 1.5 86 1.5 214 1.0
 16 17 1.5 107 1.0
 17 18 1.5 106 1.0
 18 214 1.0
 19 20 1.0 24 1.5 25 1.5
 20 21 1.0 26 1.5
 21 22 1.0 27 1.5
 22 23 1.5 36 1.5
 23 24 1.5 28 1.0
 24 29 1.0
 25 30 1.5 211 1.0
 26 220 1.0
 27 220 1.0
 28
 29
 30 31 1.5 101 1.0
 31 32 1.5 100 1.0
 32 51 1.5 211 1.0
 33 34 1.5 212 1.0
 34 35 1.5 103 1.0
 35 36 1.5 102 1.0
 36 212 1.0
 37 38 1.0 42 1.5 43 1.5
 38 39 1.0 44 1.5
 39 40 1.0 45 1.5
 40 41 1.5 54 1.5
 41 42 1.5 46 1.0
 42 47 1.0
 43 48 1.5 209 1.0
 44 219 1.0
 45 219 1.0
 46
 47
 48 49 1.5 97 1.0
 49 50 1.5 96 1.0
 50 69 1.5 209 1.0
 51 52 1.5 210 1.0
 52 53 1.5 99 1.0
 53 54 1.5 98 1.0
 54 210 1.0
 55 56 1.0 60 1.5 61 1.5
 56 57 1.0 62 1.5
 57 58 1.0 63 1.5
 58 59 1.5 72 1.5
 59 60 1.5 64 1.0
 60 65 1.0
 61 66 1.5 207 1.0
 62 218 1.0
 63 218 1.0
 64
 65
 66 67 1.5 93 1.0
 67 68 1.5 92 1.0
 68 172 1.5 207 1.0
 69 70 1.5 208 1.0
 70 71 1.5 95 1.0
 71 72 1.5 94 1.0
 72 208 1.0
 73 74 1.0 78 1.5 79 1.5
 74 75 1.0 80 1.5
 75 76 1.0 81 1.5
 76 77 1.5 90 1.0
 77 78 1.5 82 1.0
 78 83 1.0
 79 84 1.5 215 1.0
 80 222 1.0
 81 222 1.0
 82
 83
 84 85 1.5 109 1.0
 85 86 1.5 108 1.0
 86 215 1.0
 87 88 2.0 91 1.0 216 1.0
 88 89 1.0 111 1.0
 89 90 1.5 110 1.0
 90 216 1.0
 91
 92 112 1.0
 93 113 1.0
 94 114 1.0
 95 115 1.0
 96 116 1.0
 97 117 1.0
 98 118 1.0
 99 119 1.0
 100 120 1.0
 101 121 1.0
 102 122 1.0
 103 123 1.0
 104 124 1.0
 105 125 1.0
 106 126 1.0
 107 127 1.0
 108 128 1.0
 109 129 1.0
 110 130 1.0
 111 131 1.0
 112 113 1.0 132 1.0 135 1.0
 113 133 1.0 134 1.0
 114 115 1.0 138 1.0 139 1.0
 115 136 1.0 137 1.0
 116 117 1.0 140 1.0 143 1.0
 117 141 1.0 142 1.0
 118 119 1.0 145 1.0 147 1.0
 119 144 1.0 146 1.0
 120 121 1.0 148 1.0 149 1.0
 121 150 1.0 151 1.0
 122 123 1.0 152 1.0 155 1.0
 123 153 1.0 154 1.0
 124 125 1.0 166 1.0 169 1.0
 125 164 1.0 167 1.0
 126 127 1.0 168 1.0 170 1.0
 127 165 1.0 171 1.0
 128 129 1.0 156 1.0 158 1.0
 129 157 1.0 159 1.0
 130 131 1.0 160 1.0 161 1.0
 131 162 1.0 163 1.0
 132
 133
 134
 135
 136
 137
 138
 139
 140
 141
 142
 143
 144
 145
 146
 147
 148
 149
 150
 151
 152
 153
 154
 155
 156
 157
 158
 159
 160
 161
 162
 163
 164
 165
 166
 167
 168
 169
 170
 171
 172 173 1.5 206 1.0
 173 174 1.5 190 1.0
 174 175 1.5 191 1.0
 175 178 1.5 206 1.0
 176 177 1.0 190 1.0 197 1.0 198 1.0
 177 191 1.0 199 1.0 200 1.0
 178 179 1.0 182 1.5
 179 180 1.0 194 1.5
 180 181 1.0 195 1.5
 181 183 1.5 184 1.5
 182 183 2.0
 183
 184 185 1.5 205 1.0
 185 186 1.0 192 1.0
 186 187 2.0 193 1.0
 187 196 1.0 205 1.0
 188 189 1.0 192 1.0 201 1.0 202 1.0
 189 193 1.0 203 1.0 204 1.0
 190
 191
 192
 193
 194 217 1.0
 195 217 1.0
 196
 197
 198
 199
 200
 201
 202
 203
 204
 205
 206
 207
 208
 209
 210
 211
 212
 213
 214
 215
 216
 217
 218
 219
 220
 221
 222

