%chk=B-TeOTe6.chk
%mem=600MW
# td=(nstates=10) b3lyp/lanl2dz 

B-TeOTe6

0 1
 C                 17.60593400    0.83346600   -0.09485200
 C                 18.39793800   -0.36725000    0.04107900
 C                 19.85049300   -0.35460900    0.04110100
 C                 20.62110700    0.85908500   -0.09697500
 C                 19.81655800    2.01051900   -0.22879700
 C                 18.39066200    1.99814300   -0.23138400
 C                 16.15944500    0.76783600   -0.08473600
 N                 17.96133400   -1.62834500    0.18323300
 N                 20.30909300   -1.60763700    0.18711000
 H                 20.31240700    2.96634600   -0.33357000
 H                 17.87841600    2.94434000   -0.34375800
 C                 15.27479100    1.84799000   -0.16317900
 C                 13.86722800    1.58009900   -0.14950200
 C                 13.41900100    0.26789500   -0.03898600
 C                 24.81642200    0.37381900    0.02671800
 C                 24.34713100    1.66741700   -0.17334800
 C                 22.93507700    1.90451400   -0.24265600
 C                 22.06905600    0.81895200   -0.08331300
 C                  4.84443800   -0.71750700    0.02345600
 C                  5.61547300    0.50146800   -0.05559600
 C                  7.06808800    0.51410200   -0.05357500
 C                  7.85998700   -0.69090100    0.03411500
 C                  7.07494700   -1.86062900    0.11779900
 C                  5.64943000   -1.87366200    0.10609500
 C                  3.39704700   -0.67671500    0.00588500
 N                  5.15698800    1.75969500   -0.14477500
 N                  7.50475900    1.78020600   -0.14098700
 H                  7.58705500   -2.81055400    0.19343500
 H                  5.15378100   -2.83351600    0.16381600
 C                  2.53060800   -1.77164300    0.08205300
 C                  1.11919200   -1.53089800    0.02771800
 C                  0.64877300   -0.22510100   -0.06635800
 C                 12.04682800   -0.12313100   -0.01261500
 C                 11.59905900   -1.43616500    0.08914900
 C                 10.19168100   -1.70499000    0.09734600
 C                  9.30651300   -0.62440800    0.03155900
 C                 -7.93950300    0.61050000   -0.23480800
 C                 -7.14917400   -0.59829900   -0.24846000
 C                 -5.69657000   -0.58727300   -0.23393100
 C                 -4.92463400    0.63381400   -0.21466500
 C                 -5.72840400    1.79370600   -0.20502000
 C                 -7.15397100    1.78257100   -0.21555600
 C                 -9.38623100    0.54663100   -0.24644300
 N                 -7.58703400   -1.86689500   -0.27342600
 N                 -5.23915700   -1.84898100   -0.24297200
 H                 -5.23209800    2.75482100   -0.18749200
 H                 -7.66525300    2.73601300   -0.20827500
 C                -10.26911900    1.62783200   -0.16725500
 C                -11.67682200    1.36509000   -0.21620600
 C                -12.12679400    0.05312400   -0.32438400
 C                 -0.72936300    0.14080200   -0.12072400
 C                 -1.20012400    1.44762000   -0.19890900
 C                 -2.61153300    1.68878100   -0.24835500
 C                 -3.47752300    0.59185800   -0.20045500
 C                -20.70087700   -0.91943900   -0.37912700
 C                -19.92939100    0.29749300   -0.28767800
 C                -18.47720700    0.31049100   -0.31147200
 C                -17.68628200   -0.89392000   -0.42342300
 C                -18.47251400   -2.06340100   -0.50361000
 C                -19.89784900   -2.07498100   -0.48401200
 C                -22.14813400   -0.87949000   -0.34288100
 N                -20.38663200    1.55342400   -0.16401200
 N                -18.03930600    1.57441800   -0.20424600
 H                -17.96168800   -3.01393900   -0.57922400
 H                -20.39476400   -3.03392500   -0.54767900
 C                -23.01566800   -1.96972800   -0.45964700
 C                -24.42512800   -1.73249100   -0.36555200
 C                -24.89185700   -0.43459000   -0.18192600
 C                -13.49926600   -0.33359200   -0.37679300
 C                -13.94953000   -1.64441800   -0.49829300
 C                -15.35706800   -1.90695600   -0.54167700
 C                -16.24045900   -0.82826400   -0.42850700
 C                 30.39128000   -0.47004500    0.24876400
 C                 31.16334700    0.74223300    0.09317000
 C                 32.61540500    0.75580200    0.10147100
 C                 33.40374700   -0.44030000    0.26783400
 C                 32.62350100   -1.60050700    0.42032500
 C                 31.19419900   -1.61648600    0.40645100
 C                 28.94252900   -0.42959100    0.22687300
 N                 30.70558900    1.99159100   -0.07892500
 N                 33.05241700    2.01519500   -0.06318400
 H                 33.13658600   -2.54355200    0.55528400
 H                 30.69994900   -2.57141600    0.52438000
 C                 28.07746600   -1.51500500    0.38984200
 C                 26.66505700   -1.27988100    0.31648400
 C                 26.19514800    0.01270600    0.11246100
 C                 37.56459700    0.13047600    0.23595400
 C                 37.17018800   -1.17266300    0.38320000
 C                 35.74149900   -1.44854000    0.39151200
 C                 34.85756800   -0.38108800    0.27011700
 H                 38.60134600    0.44299500    0.22019700
 O                -25.36278000   -2.78347100   -0.46545200
 O                -22.52961700   -3.28166500   -0.64731200
 O                -15.82666700   -3.23061500   -0.67603400
 O                -12.99789000   -2.68508500   -0.58648400
 O                -12.62848300    2.40611700   -0.14186100
 O                 -9.80049600    2.95472100   -0.05530400
 O                 -3.10129900    3.00999800   -0.32872100
 O                 -0.26512400    2.50593900   -0.24121800
 O                  0.18402600   -2.58876600    0.07975900
 O                  3.02036000   -3.09094400    0.19104900
 O                  9.72493500   -3.03399000    0.18748400
 O                 12.55249400   -2.47585500    0.16781500
 O                 12.91424900    2.61986300   -0.23187200
 O                 15.74196000    3.17550600   -0.26985900
 O                 22.44587800    3.21243300   -0.44851600
 O                 25.28229200    2.71658400   -0.31549400
 O                 25.73085000   -2.33044400    0.45948600
 O                 28.56774300   -2.82071500    0.60309700
 O                 35.27532000   -2.77012000    0.53829500
 O                 38.11799900   -2.21234300    0.49926700
 C                -24.80398100   -4.13234800   -0.28671400
 C                -23.52943800   -4.25293000   -1.11942100
 C                -14.82296000   -4.20697000   -1.12947400
 C                -13.53117900   -4.03168300   -0.33400300
 C                -12.09606400    3.75231700   -0.39976800
 C                -10.80398500    3.93274900    0.39422700
 C                 -2.11141300    4.01752400   -0.74212000
 C                 -0.82115000    3.83457900    0.05421400
 C                  0.74251500   -3.92056300   -0.19609400
 C                  2.02761600   -4.09275700    0.61081000
 C                 10.72930900   -4.07109800   -0.09787900
 C                 12.02468900   -3.76047000    0.64933200
 C                 13.44051000    3.90034700   -0.72594200
 C                 14.73992300    4.21600000    0.01219700
 C                 23.43702300    4.17779400   -0.95030100
 C                 24.72682900    4.06666900   -0.14018000
 C                 26.28932100   -3.67864100    0.28227800
 C                 27.57584300   -3.78946400    1.09758900
 C                 36.28710100   -3.82151300    0.32987500
 C                 37.57534500   -3.45446800    1.06234600
 H                -25.57857100   -4.82333700   -0.62890100
 H                -23.06218700   -5.23388900   -0.99943600
 H                -23.74289700   -4.06696700   -2.18019300
 H                -24.59428000   -4.29861000    0.77785700
 H                -13.71333900   -4.15443800    0.74165000
 H                -12.75461300   -4.72631500   -0.66422700
 H                -15.27274000   -5.18827900   -0.95677500
 H                -14.63720600   -4.06340100   -2.20194900
 H                -11.91445900    3.87013100   -1.47601100
 H                -10.35541000    4.91355600    0.21567900
 H                -10.98876500    3.79533400    1.46771800
 H                -12.87356200    4.44743600   -0.07268500
 H                 -0.05374400    4.55226400   -0.24688700
 H                 -1.91810000    3.91535200   -1.81800900
 H                 -1.01097400    3.91680600    1.13238400
 H                 -2.57754700    4.98490900   -0.53720700
 H                  0.93946000   -4.01589300   -1.27191500
 H                 -0.02633200   -4.63502600    0.10894200
 H                  2.49503700   -5.06279600    0.42186200
 H                  1.82677900   -3.97637500    1.68391700
 H                 10.28324400   -5.00949700    0.24203200
 H                 11.84827900   -3.69776300    1.73114200
 H                 12.80163900   -4.49977700    0.43862100
 H                 10.91018500   -4.11224200   -1.18000800
 H                 25.52184600   -4.36894700    0.64152800
 H                 27.37665600   -3.59324200    2.15923300
 H                 26.48406800   -3.85396200   -0.78388000
 H                 28.04411000   -4.77040400    0.98083800
 H                 35.83770000   -4.73589000    0.72666400
 H                 36.47363700   -3.93130900   -0.74649300
 H                 37.38598900   -3.32446300    2.13704200
 H                 38.35081000   -4.21026400    0.91166600
 H                 15.18514400    5.15114100   -0.33762200
 H                 25.49442700    4.75427000   -0.50431200
 H                 13.61127600    3.82914000   -1.80813000
 H                 14.56483600    4.26611900    1.09486700
 H                 23.63119600    3.97876100   -2.01240300
 H                 12.66514500    4.64182600   -0.51704200
 H                 22.97155900    5.16009400   -0.83389900
 H                 24.53687500    4.24495500    0.92628500
 C                -26.26635900   -0.07653500   -0.06008200
 C                -26.73639300    1.22065200    0.13635500
 C                -28.14197700    1.44333000    0.25877500
 C                -28.99140500    0.33635300    0.18946800
 C                -26.35967200    3.51950800    0.80257000
 C                -27.72270000    3.82495400    0.17961700
 C                -30.41247300    0.41754100    0.29776900
 C                -31.30313100   -0.75324900    0.21592900
 C                -32.77301100   -0.67609900    0.33390400
 C                -33.50716900    0.57757300    0.54680000
 C                -31.26655900    1.50349700    0.49203000
 C                -32.52746600    1.56726300    0.59377400
 C                -34.93447600    0.65660100    0.66948000
 C                -35.64238700    1.83707700    0.86107300
 C                -37.08774400    1.76011600    0.96576000
 C                -37.66404300    0.52026200    0.85318500
 C                -35.82290900    4.25148400    0.84353400
 C                -37.09467600    4.06698700    1.67107200
 O                -25.81596400    2.28875400    0.20230900
 O                -28.66468500    2.72781200    0.46198500
 O                -34.96504100    3.05814400    0.96688900
 O                -37.86244100    2.92239000    1.15609700
 N                -30.94248100   -2.02980300    0.03411500
 N                -33.28867700   -1.90888700    0.22198300
 H                -38.73035300    0.34492600    0.92126000
 H                -26.44719400    3.38112800    1.88803500
 H                -25.63135900    4.30383100    0.58195200
 H                -28.17519400    4.71674500    0.62045800
 H                -27.63133300    3.94937900   -0.90723800
 H                -35.21469600    5.08175700    1.21149800
 H                -36.06884300    4.40671200   -0.21510700
 H                -36.84668300    3.89790100    2.72799100
 H                -37.75917400    4.93014700    1.57944000
 O                -32.16362200   -2.77608100    0.03417700
 O                -19.21844700    2.37611100   -0.10944000
 O                 -6.40655300   -2.67333100   -0.26910400
 O                  6.32388900    2.58359800   -0.19959500
 O                 19.14201300   -2.42821200    0.27780600
 O                 31.87108300    2.81056900   -0.17924700
 Te               -36.25861200   -0.98227500    0.55772300
 Te               -27.88292700   -1.43748500   -0.11862600
 Te               -23.26801200    0.91030400   -0.08993100
 Te               -15.14203100    0.98522900   -0.25975700
 Te               -10.48348600   -1.26875700   -0.39324000
 Te                -2.35108700   -1.20881900   -0.09529400
 Te                 2.27132700    1.12211500   -0.13520200
 Te                10.40109900    1.19425800   -0.10226500
 Te                15.06419000   -1.04855600    0.07103900
 Te                23.19400000   -0.96431700    0.19371800
 Te                27.81642300    1.35106400   -0.06117400
 Te                35.95364100    1.42442700    0.06081600

 1 2 1.5 6 1.5 7 1.0
 2 3 1.0 8 1.5
 3 4 1.5 9 1.5
 4 5 1.5 18 1.0
 5 6 1.5 10 1.0
 6 11 1.0
 7 12 1.5 219 1.0
 8 209 1.0
 9 209 1.0
 10
 11
 12 13 1.5 105 1.0
 13 14 1.5 104 1.0
 14 33 1.5 219 1.0
 15 16 1.5 86 1.5 220 1.0
 16 17 1.5 107 1.0
 17 18 1.5 106 1.0
 18 220 1.0
 19 20 1.5 24 1.5 25 1.0
 20 21 1.0 26 1.5
 21 22 1.5 27 1.5
 22 23 1.5 36 1.0
 23 24 1.5 28 1.0
 24 29 1.0
 25 30 1.5 217 1.0
 26 208 1.0
 27 208 1.0
 28
 29
 30 31 1.5 101 1.0
 31 32 1.5 100 1.0
 32 51 1.5 217 1.0
 33 34 1.5 218 1.0
 34 35 1.5 103 1.0
 35 36 1.5 102 1.0
 36 218 1.0
 37 38 1.5 42 1.5 43 1.0
 38 39 1.0 44 1.5
 39 40 1.5 45 1.5
 40 41 1.5 54 1.0
 41 42 1.5 46 1.0
 42 47 1.0
 43 48 1.5 215 1.0
 44 207 1.0
 45 207 1.0
 46
 47
 48 49 1.5 97 1.0
 49 50 1.5 96 1.0
 50 69 1.5 215 1.0
 51 52 1.5 216 1.0
 52 53 1.5 99 1.0
 53 54 1.5 98 1.0
 54 216 1.0
 55 56 1.5 60 1.5 61 1.0
 56 57 1.0 62 1.5
 57 58 1.5 63 1.5
 58 59 1.5 72 1.5
 59 60 1.5 64 1.0
 60 65 1.0
 61 66 1.5 213 1.0
 62 206 1.0
 63 206 1.0
 64
 65
 66 67 1.5 93 1.0
 67 68 1.5 92 1.0
 68 172 1.5 213 1.0
 69 70 1.5 214 1.0
 70 71 1.5 95 1.0
 71 72 1.5 94 1.0
 72 214 1.0
 73 74 1.5 78 1.5 79 1.0
 74 75 1.0 80 1.5
 75 76 1.5 81 1.5
 76 77 1.5 90 1.0
 77 78 1.5 82 1.0
 78 83 1.0
 79 84 1.5 221 1.0
 80 210 1.0
 81 210 1.0
 82
 83
 84 85 1.5 109 1.0
 85 86 1.5 108 1.0
 86 221 1.0
 87 88 2.0 91 1.0 222 1.0
 88 89 1.0 111 1.0
 89 90 1.5 110 1.0
 90 222 1.0
 91
 92 112 1.0
 93 113 1.0
 94 114 1.0
 95 115 1.0
 96 116 1.0
 97 117 1.0
 98 118 1.0
 99 119 1.0
 100 120 1.0
 101 121 1.0
 102 122 1.0
 103 123 1.0
 104 124 1.0
 105 125 1.0
 106 126 1.0
 107 127 1.0
 108 128 1.0
 109 129 1.0
 110 130 1.0
 111 131 1.0
 112 113 1.0 132 1.0 135 1.0
 113 133 1.0 134 1.0
 114 115 1.0 138 1.0 139 1.0
 115 136 1.0 137 1.0
 116 117 1.0 140 1.0 143 1.0
 117 141 1.0 142 1.0
 118 119 1.0 145 1.0 147 1.0
 119 144 1.0 146 1.0
 120 121 1.0 148 1.0 149 1.0
 121 150 1.0 151 1.0
 122 123 1.0 152 1.0 155 1.0
 123 153 1.0 154 1.0
 124 125 1.0 166 1.0 169 1.0
 125 164 1.0 167 1.0
 126 127 1.0 168 1.0 170 1.0
 127 165 1.0 171 1.0
 128 129 1.0 156 1.0 158 1.0
 129 157 1.0 159 1.0
 130 131 1.0 160 1.0 161 1.0
 131 162 1.0 163 1.0
 132
 133
 134
 135
 136
 137
 138
 139
 140
 141
 142
 143
 144
 145
 146
 147
 148
 149
 150
 151
 152
 153
 154
 155
 156
 157
 158
 159
 160
 161
 162
 163
 164
 165
 166
 167
 168
 169
 170
 171
 172 173 1.5 212 1.0
 173 174 1.5 190 1.0
 174 175 1.5 191 1.0
 175 178 1.5 212 1.0
 176 177 1.0 190 1.0 197 1.0 198 1.0
 177 191 1.0 199 1.0 200 1.0
 178 179 1.0 182 1.5
 179 180 1.0 194 1.5
 180 181 1.0 195 1.5
 181 183 1.5 184 1.5
 182 183 2.0
 183
 184 185 1.5 211 1.0
 185 186 1.0 192 1.0
 186 187 2.0 193 1.0
 187 196 1.0 211 1.0
 188 189 1.0 192 1.0 201 1.0 202 1.0
 189 193 1.0 203 1.0 204 1.0
 190
 191
 192
 193
 194 205 1.0
 195 205 1.0
 196
 197
 198
 199
 200
 201
 202
 203
 204
 205
 206
 207
 208
 209
 210
 211
 212
 213
 214
 215
 216
 217
 218
 219
 220
 221
 222

