%chk=B-TeSeTe6.chk
%mem=600MW
# td=(nstates=10) b3lyp/lanl2dz 

B-TeSeTe6

0 1
 C                 17.61663500    0.74564300   -0.08912300
 C                 18.38007400   -0.48770400    0.02045600
 C                 19.86027900   -0.48339600    0.02724900
 C                 20.61665100    0.75296500   -0.08444000
 C                 19.82442000    1.91339700   -0.19209100
 C                 18.40334700    1.90996500   -0.19723100
 C                 16.17091000    0.69561100   -0.08157800
 N                 17.79397500   -1.69086700    0.12235100
 N                 20.45247600   -1.68290000    0.14286800
 H                 20.32927300    2.86667400   -0.27432200
 H                 17.89412100    2.86001300   -0.28823400
 C                 15.29266200    1.78323900   -0.14164700
 C                 13.88287300    1.52807200   -0.13429600
 C                 13.42248800    0.21732800   -0.04689800
 C                 24.81277000    0.25399700    0.03533900
 C                 24.34715500    1.55452300   -0.13064500
 C                 22.93585600    1.79693100   -0.19761100
 C                 22.06344400    0.71153600   -0.07018800
 C                  4.85252300   -0.70067700    0.00070400
 C                  5.60862600    0.54028100   -0.05348700
 C                  7.08892200    0.54482000   -0.05428900
 C                  7.85275200   -0.69112200    0.00581200
 C                  7.06653000   -1.85968500    0.06477600
 C                  5.64601000   -1.86454800    0.05534500
 C                  3.40653900   -0.65914600   -0.01187100
 N                  5.01558800    1.74332100   -0.10984700
 N                  7.67442900    1.75154100   -0.11087900
 H                  7.57645700   -2.81221900    0.11831200
 H                  5.14208300   -2.82105000    0.09228500
 C                  2.53450400   -1.75221700    0.03821600
 C                  1.12375200   -1.50738000   -0.00703100
 C                  0.65556600   -0.19762600   -0.06518600
 C                 12.04664000   -0.15991800   -0.02986000
 C                 11.58700400   -1.47156900    0.04700100
 C                 10.17747500   -1.72790900    0.04819300
 C                  9.29853400   -0.64017300    0.00345100
 C                 -7.91881500    0.65989700   -0.19466100
 C                 -7.15460700   -0.57654100   -0.21982300
 C                 -5.67453000   -0.57139900   -0.20010500
 C                 -4.91907200    0.67126200   -0.17344400
 C                 -5.71318400    1.83591200   -0.15497200
 C                 -7.13376100    1.83034900   -0.16558600
 C                 -9.36468000    0.60840500   -0.20524200
 N                 -7.73931800   -1.78453000   -0.25936500
 N                 -5.08079200   -1.77519100   -0.21084400
 H                 -5.21001600    2.79322000   -0.13018600
 H                 -7.64447400    2.78395500   -0.15095600
 C                -10.24425700    1.69400300   -0.13495100
 C                -11.65339400    1.43967100   -0.18177600
 C                -12.11172600    0.12856800   -0.27705900
 C                 -0.72221600    0.16990900   -0.10637000
 C                 -1.19118800    1.48007600   -0.14819200
 C                 -2.60209600    1.72472600   -0.18677400
 C                 -3.47338500    0.62998700   -0.16321500
 C                -20.67819600   -0.80060600   -0.33479400
 C                -19.92563900    0.43913900   -0.24727700
 C                -18.44589800    0.44850200   -0.26985900
 C                -17.67910600   -0.78397800   -0.37290400
 C                -18.46299700   -1.95362400   -0.44456500
 C                -19.88340200   -1.96087600   -0.42816500
 C                -22.12448800   -0.76373100   -0.30601700
 N                -20.52122700    1.63760900   -0.13599000
 N                -17.86313300    1.65405800   -0.18013900
 H                -17.95165500   -2.90443100   -0.51177400
 H                -20.38608800   -2.91716200   -0.48575700
 C                -22.99453700   -1.85385300   -0.41036400
 C                -24.40426600   -1.61519300   -0.32562400
 C                -24.87175800   -0.31396500   -0.16391600
 C                -13.48667800   -0.24821900   -0.32708200
 C                -13.94493800   -1.55846300   -0.43558600
 C                -15.35369900   -1.81278800   -0.47906600
 C                -16.23429300   -0.72944500   -0.37804800
 C                 30.38796800   -0.60917400    0.24649400
 C                 31.14764900    0.62635900    0.11459100
 C                 32.62726500    0.62963700    0.12520400
 C                 33.38526100   -0.59944800    0.26621300
 C                 32.60278700   -1.75841200    0.39393700
 C                 31.17760400   -1.76517300    0.37993700
 C                 28.94045400   -0.56586000    0.22495700
 N                 30.55766100    1.82285600   -0.02550600
 N                 33.21474400    1.83183500   -0.00210500
 H                 33.11293500   -2.70595100    0.50814500
 H                 30.67444200   -2.71768600    0.47701800
 C                 28.06868300   -1.65087100    0.35790400
 C                 26.65701700   -1.41037900    0.28650800
 C                 26.19078200   -0.11093800    0.11539700
 C                 37.54926700   -0.06471400    0.23373700
 C                 37.14747100   -1.36658600    0.36216300
 C                 35.71580400   -1.63293300    0.36985200
 C                 34.83909100   -0.55847300    0.26783700
 H                 38.59025800    0.23586800    0.22076200
 O                -25.33958800   -2.67261100   -0.41434000
 O                -22.50662000   -3.17009000   -0.57655200
 O                -15.83245000   -3.13615700   -0.60162000
 O                -13.00154900   -2.61100700   -0.51186800
 O                -12.59630800    2.49284900   -0.11866800
 O                 -9.76562700    3.02023100   -0.03520200
 O                 -3.09160200    3.04956400   -0.23139100
 O                 -0.25676500    2.54314000   -0.16450700
 O                  0.18863500   -2.56959300    0.01911300
 O                  3.02307700   -3.07627000    0.11282300
 O                  9.69741000   -3.05562400    0.11150400
 O                 12.52898700   -2.52625600    0.10817900
 O                 12.94166100    2.58319700   -0.20064000
 O                 15.77363000    3.10931200   -0.22486600
 O                 22.44922900    3.11277800   -0.36956400
 O                 25.28317900    2.61005800   -0.24215400
 O                 25.72191900   -2.46721100    0.39961200
 O                 28.55616200   -2.96409800    0.53946000
 O                 35.24084900   -2.95542000    0.49818600
 O                 38.08795000   -2.41848500    0.45975500
 C                -24.77899300   -4.01488100   -0.20906600
 C                -23.50230800   -4.14858100   -1.03647600
 C                -14.83633700   -4.12386600   -1.04096700
 C                -13.54649600   -3.94751400   -0.24262600
 C                -12.05180600    3.82779800   -0.39805200
 C                -10.76113500    4.01107300    0.39753400
 C                 -2.10317600    4.06862800   -0.61205300
 C                 -0.81321600    3.85811800    0.17794700
 C                  0.74691100   -3.89060600   -0.29598800
 C                  2.03148800   -4.08713600    0.50615300
 C                 10.69053800   -4.09612300   -0.19036000
 C                 11.98572400   -3.81063700    0.56701400
 C                 13.48355200    3.86126400   -0.67825800
 C                 14.78305800    4.15493100    0.06864300
 C                 23.44165900    4.08881600   -0.84154700
 C                 24.72757600    3.95257100   -0.02911800
 C                 26.28065300   -3.80791300    0.18561500
 C                 27.56287700   -3.94351000    1.00384900
 C                 36.24383300   -4.00898300    0.26951000
 C                 37.53635300   -3.66328200    1.00511100
 H                -25.55102900   -4.71490100   -0.53938900
 H                -23.03441500   -5.12747800   -0.90096300
 H                -23.71472200   -3.97928800   -2.10050500
 H                -24.56924100   -4.16232300    0.85860200
 H                -13.73640700   -4.05508400    0.83367400
 H                -12.77478100   -4.65437300   -0.55897600
 H                -15.29407400   -5.10027300   -0.86010000
 H                -14.64411200   -3.99332800   -2.11420800
 H                -11.86310800    3.92688600   -1.47531200
 H                -10.30437200    4.98625700    0.20780000
 H                -10.95204900    3.88987900    1.47216400
 H                -12.82389500    4.53650200   -0.08672100
 H                 -0.04663300    4.58784700   -0.09612700
 H                 -1.90807700    4.00106600   -1.69059800
 H                 -1.00581300    3.90314800    1.25817600
 H                 -2.56919100    5.02944800   -0.37694800
 H                  0.94688900   -3.95513800   -1.37389400
 H                 -0.02174000   -4.61506800   -0.01382300
 H                  2.49813900   -5.05261300    0.29227400
 H                  1.82911500   -3.99914800    1.58192000
 H                 10.23405700   -5.03684400    0.12945700
 H                 11.80286600   -3.76439000    1.64893000
 H                 12.75530600   -4.55598000    0.34909900
 H                 10.87653200   -4.11865600   -1.27242000
 H                 25.51161700   -4.50943100    0.51984400
 H                 27.35750800   -3.77508400    2.06931900
 H                 26.48306700   -3.95358100   -0.88392400
 H                 28.03081800   -4.92188100    0.86433400
 H                 35.78937900   -4.92756500    0.65110200
 H                 36.42889300   -4.10197200   -0.80894500
 H                 37.34818400   -3.54828800    2.08199300
 H                 38.30509400   -4.42390800    0.84300100
 H                 15.23906100    5.09087000   -0.26554100
 H                 25.49668900    4.65168000   -0.36821800
 H                 13.66037000    3.80152100   -1.76051900
 H                 14.60294600    4.19148000    1.15127800
 H                 23.64163600    3.91794000   -1.90773800
 H                 12.71589500    4.61005400   -0.46546700
 H                 22.97694000    5.06869900   -0.70182300
 H                 24.53036800    4.10066900    1.04099600
 C                -26.24741300    0.04285400   -0.05358900
 C                -26.72084000    1.34339800    0.12043700
 C                -28.12728900    1.56526700    0.23301600
 C                -28.97604100    0.45672700    0.17839400
 C                -26.35704400    3.65141300    0.75953600
 C                -27.71654500    3.94735000    0.12418700
 C                -30.39639200    0.52952000    0.27910300
 C                -31.26153400   -0.67307900    0.21049100
 C                -32.76839600   -0.59935300    0.32347000
 C                -33.48733900    0.67570000    0.51007100
 C                -31.25501600    1.61155200    0.45002000
 C                -32.51572600    1.66955900    0.54449900
 C                -34.91473600    0.74957800    0.62245800
 C                -35.64157800    1.92085900    0.78970600
 C                -37.08713100    1.82171900    0.88566300
 C                -37.64152300    0.57109700    0.78892300
 C                -35.86021900    4.33087300    0.72986700
 C                -37.13447300    4.14060200    1.55263200
 O                -25.80494800    2.41918200    0.17443300
 O                -28.65621900    2.85240200    0.41351600
 O                -34.98387100    3.15618600    0.88151600
 O                -37.88151000    2.97735500    1.05200300
 N                -30.75215800   -1.89750900    0.04794200
 N                -33.41239600   -1.77150200    0.24732000
 H                -38.70673600    0.38465700    0.85284400
 H                -26.45413500    3.52349700    1.84581200
 H                -25.63023800    4.43738500    0.53843600
 H                -28.17411000    4.84390000    0.55042500
 H                -27.61655000    4.05895400   -0.96355300
 H                -35.26911800    5.17908700    1.08518400
 H                -36.10343800    4.46243600   -0.33288400
 H                -36.88893000    3.99259100    2.61352500
 H                -37.81085000    4.99278400    1.44407800
 Te               -36.20124400   -0.91553800    0.52666800
 Te               -27.87609600   -1.32197000   -0.09638700
 Te               -23.23098900    1.03370800   -0.08688100
 Te               -15.13946600    1.08258600   -0.22721900
 Te               -10.45898200   -1.20520600   -0.33283400
 Te                -2.36393100   -1.17839100   -0.11032600
 Te                 2.29860000    1.14869200   -0.10279300
 Te                10.39490200    1.17444200   -0.09532700
 Te                15.07330700   -1.11660000    0.04337600
 Te                23.16906800   -1.08536600    0.15883300
 Te                27.83347500    1.22818400   -0.01772800
 Te                35.93576900    1.24557800    0.08339900
 Se               -32.15482400   -3.15156400    0.01822900
 Se               -19.19835400    2.96831600   -0.04886800
 Se                -6.40485500   -3.10655200   -0.26259500
 Se                 6.34093200    3.07300700   -0.17187100
 Se                19.12620500   -3.00838100    0.25143700
 Se                31.88398500    3.14460400   -0.16046900

 1 2 1.0 6 1.5 7 1.5
 2 3 1.0 8 1.5
 3 4 1.0 9 1.5
 4 5 1.5 18 1.5
 5 6 1.5 10 1.0
 6 11 1.0
 7 12 1.5 213 1.0
 8 221 1.0
 9 221 1.0
 10
 11
 12 13 1.5 105 1.0
 13 14 1.5 104 1.0
 14 33 1.5 213 1.0
 15 16 1.5 86 1.5 214 1.0
 16 17 1.5 107 1.0
 17 18 1.5 106 1.0
 18 214 1.0
 19 20 1.0 24 1.5 25 1.5
 20 21 1.0 26 1.5
 21 22 1.0 27 1.5
 22 23 1.5 36 1.5
 23 24 1.5 28 1.0
 24 29 1.0
 25 30 1.5 211 1.0
 26 220 1.0
 27 220 1.0
 28
 29
 30 31 1.5 101 1.0
 31 32 1.5 100 1.0
 32 51 1.5 211 1.0
 33 34 1.5 212 1.0
 34 35 1.5 103 1.0
 35 36 1.5 102 1.0
 36 212 1.0
 37 38 1.0 42 1.5 43 1.5
 38 39 1.0 44 1.5
 39 40 1.0 45 1.5
 40 41 1.5 54 1.5
 41 42 1.5 46 1.0
 42 47 1.0
 43 48 1.5 209 1.0
 44 219 1.0
 45 219 1.0
 46
 47
 48 49 1.5 97 1.0
 49 50 1.5 96 1.0
 50 69 1.5 209 1.0
 51 52 1.5 210 1.0
 52 53 1.5 99 1.0
 53 54 1.5 98 1.0
 54 210 1.0
 55 56 1.0 60 1.5 61 1.5
 56 57 1.0 62 1.5
 57 58 1.0 63 1.5
 58 59 1.5 72 1.5
 59 60 1.5 64 1.0
 60 65 1.0
 61 66 1.5 207 1.0
 62 218 1.0
 63 218 1.0
 64
 65
 66 67 1.5 93 1.0
 67 68 1.5 92 1.0
 68 172 1.5 207 1.0
 69 70 1.5 208 1.0
 70 71 1.5 95 1.0
 71 72 1.5 94 1.0
 72 208 1.0
 73 74 1.0 78 1.5 79 1.0
 74 75 1.0 80 1.5
 75 76 1.0 81 1.5
 76 77 1.5 90 1.0
 77 78 1.5 82 1.0
 78 83 1.0
 79 84 1.5 215 1.0
 80 222 1.0
 81 222 1.0
 82
 83
 84 85 1.5 109 1.0
 85 86 1.5 108 1.0
 86 215 1.0
 87 88 2.0 91 1.0 216 1.0
 88 89 1.0 111 1.0
 89 90 1.5 110 1.0
 90 216 1.0
 91
 92 112 1.0
 93 113 1.0
 94 114 1.0
 95 115 1.0
 96 116 1.0
 97 117 1.0
 98 118 1.0
 99 119 1.0
 100 120 1.0
 101 121 1.0
 102 122 1.0
 103 123 1.0
 104 124 1.0
 105 125 1.0
 106 126 1.0
 107 127 1.0
 108 128 1.0
 109 129 1.0
 110 130 1.0
 111 131 1.0
 112 113 1.0 132 1.0 135 1.0
 113 133 1.0 134 1.0
 114 115 1.0 138 1.0 139 1.0
 115 136 1.0 137 1.0
 116 117 1.0 140 1.0 143 1.0
 117 141 1.0 142 1.0
 118 119 1.0 145 1.0 147 1.0
 119 144 1.0 146 1.0
 120 121 1.0 148 1.0 149 1.0
 121 150 1.0 151 1.0
 122 123 1.0 152 1.0 155 1.0
 123 153 1.0 154 1.0
 124 125 1.0 166 1.0 169 1.0
 125 164 1.0 167 1.0
 126 127 1.0 168 1.0 170 1.0
 127 165 1.0 171 1.0
 128 129 1.0 156 1.0 158 1.0
 129 157 1.0 159 1.0
 130 131 1.0 160 1.0 161 1.0
 131 162 1.0 163 1.0
 132
 133
 134
 135
 136
 137
 138
 139
 140
 141
 142
 143
 144
 145
 146
 147
 148
 149
 150
 151
 152
 153
 154
 155
 156
 157
 158
 159
 160
 161
 162
 163
 164
 165
 166
 167
 168
 169
 170
 171
 172 173 1.5 206 1.0
 173 174 1.5 190 1.0
 174 175 1.5 191 1.0
 175 178 1.5 206 1.0
 176 177 1.0 190 1.0 197 1.0 198 1.0
 177 191 1.0 199 1.0 200 1.0
 178 179 1.0 182 1.5
 179 180 1.0 194 1.5
 180 181 1.0 195 1.5
 181 183 1.5 184 1.5
 182 183 2.0
 183
 184 185 1.5 205 1.0
 185 186 1.0 192 1.0
 186 187 2.0 193 1.0
 187 196 1.0 205 1.0
 188 189 1.0 192 1.0 201 1.0 202 1.0
 189 193 1.0 203 1.0 204 1.0
 190
 191
 192
 193
 194 217 1.0
 195 217 1.0
 196
 197
 198
 199
 200
 201
 202
 203
 204
 205
 206
 207
 208
 209
 210
 211
 212
 213
 214
 215
 216
 217
 218
 219
 220
 221
 222

