%chk=C-OOO1c-UV.chk
# td=(nstates=10) b3lyp/lanl2dz geom=connectivity

C-OOO1c-UV

0 1
 C                  1.50545800   -0.04778800   -0.00004300
 C                  0.73061000   -1.25806900   -0.00031400
 C                 -0.73059600   -1.25809200   -0.00036900
 C                 -1.50545800   -0.04781900   -0.00016700
 C                 -0.73448700    1.14715200    0.00002600
 C                  0.73446700    1.14717300    0.00011300
 C                  2.95193800   -0.05805200    0.00005900
 N                  1.18104500   -2.53829700   -0.00058100
 N                 -1.18098300   -2.53833700   -0.00066700
 N                 -1.41302200    2.36579700    0.00017700
 N                  1.41297700    2.36582400    0.00041600
 O                  0.00004600   -3.32115100   -0.00079900
 C                  3.94902900    0.91811300   -0.00003900
 C                  5.21537500    0.24424800    0.00007900
 C                  4.94795400   -1.11068500    0.00026300
 O                  3.57838700   -1.32238000    0.00025300
 C                 -4.94798300   -1.11070500    0.00021500
 C                 -5.21538900    0.24422800    0.00024800
 C                 -3.94902000    0.91808100    0.00007300
 C                 -2.95194000   -0.05808500   -0.00009000
 O                 -3.57839000   -1.32239600   -0.00001400
 H                  5.56150100   -1.99744300    0.00042700
 H                  6.19283900    0.70332600    0.00002200
 H                  3.76465100    1.97775800   -0.00014700
 H                 -3.76459600    1.97771600    0.00007600
 H                 -6.19283100    0.70334500    0.00040900
 H                 -5.56134300   -1.99756200    0.00032400
 C                 -0.72009900    3.49181200    0.00044500
 C                  0.72003700    3.49182600    0.00058900
 H                 -1.27285100    4.42765800    0.00056600
 H                  1.27277300    4.42768100    0.00087100

 1 2 1.5 6 1.5 7 1.5
 2 3 1.0 8 1.5
 3 4 1.5 9 1.5
 4 5 1.5 20 1.5
 5 6 1.0 10 1.0
 6 11 1.0
 7 13 1.5 16 1.0
 8 12 1.0
 9 12 1.0
 10 28 2.0
 11 29 2.0
 12
 13 14 1.5 24 1.0
 14 15 2.0 23 1.0
 15 16 1.0 22 1.0
 16
 17 18 2.0 21 1.0 27 1.0
 18 19 1.5 26 1.0
 19 20 1.5 25 1.0
 20 21 1.0
 21
 22
 23
 24
 25
 26
 27
 28 29 1.5 30 1.0
 29 31 1.0
 30
 31

