%chk=C-OSeO1b-UV.chk
# td=(nstates=10) b3lyp/lanl2dz geom=connectivity

C-OSeO1b-UV

0 1
 C                 -1.46678400    0.53492300   -0.02765900
 C                 -0.79764700   -0.74706400   -0.07297000
 C                  0.69144500   -0.83926000   -0.05733300
 C                  1.51787400    0.34506300   -0.03934400
 C                  0.83571600    1.58064000   -0.14956100
 C                 -0.62846100    1.67560100   -0.10160900
 C                 -2.91166800    0.63861000    0.08018300
 N                 -1.46081000   -1.92318100   -0.14928900
 N                  1.20950400   -2.08748000   -0.09140700
 N                  1.58976100    2.73976000   -0.34573400
 N                 -1.22565700    2.93911700   -0.11118700
 C                 -3.83714700    1.63960400   -0.20717900
 C                 -5.14095400    1.13661700    0.12071400
 C                 -4.96219600   -0.14304800    0.60665700
 O                 -3.61613600   -0.47317700    0.59140400
 C                  5.03376400    0.89677000    0.63973000
 C                  5.15997800   -0.38630600    0.14629200
 C                  3.83827300   -0.82500600   -0.20234400
 C                  2.95959300    0.21949800    0.07535500
 O                  3.70481200    1.29165000    0.60825200
 H                 -5.62959300   -0.90378800    0.97915900
 H                 -6.08175500    1.65585900    0.01274900
 H                 -3.58722600    2.61176200   -0.59434300
 H                  3.54823000   -1.78395700   -0.59775100
 H                  6.07681300   -0.94856500    0.04858800
 H                  5.73090500    1.62112400    1.03004300
 C                  0.96947000    3.90442400   -0.39651200
 C                 -0.46104200    4.00945400   -0.23582400
 H                  1.57331500    4.79068000   -0.57527800
 H                 -0.94678500    4.98226500   -0.22762300
 Se                -0.20541700   -3.29687700   -0.17238400

 1 2 1.5 6 1.5 7 1.0
 2 3 1.0 8 1.5
 3 4 1.5 9 1.5
 4 5 1.5 19 1.0
 5 6 1.0 10 1.0
 6 11 1.0
 7 12 1.5 15 1.0
 8 31 1.0
 9 31 1.0
 10 27 2.0
 11 28 2.0
 12 13 1.5 23 1.0
 13 14 2.0 22 1.0
 14 15 1.0 21 1.0
 15
 16 17 2.0 20 1.0 26 1.0
 17 18 1.5 25 1.0
 18 19 1.5 24 1.0
 19 20 1.0
 20
 21
 22
 23
 24
 25
 26
 27 28 1.5 29 1.0
 28 30 1.0
 29
 30
 31

