%chk=C-OSO1b-UV.chk
# td=(nstates=10) b3lyp/lanl2dz geom=connectivity

C-OSO1b-UV

0 1
 C                  1.49805200    0.14064300   -0.03538500
 C                  0.79403800   -1.11935200   -0.09537100
 C                 -0.68952200   -1.17703100   -0.08731600
 C                 -1.49837900    0.01539700   -0.05276300
 C                 -0.78688300    1.23869300   -0.13163400
 C                  0.67960400    1.30000400   -0.08481400
 C                  2.94424400    0.20896200    0.06403500
 N                  1.39949100   -2.32820700   -0.17446100
 N                 -1.20568200   -2.42674400   -0.14025100
 N                 -1.51515000    2.41834900   -0.29334400
 N                  1.30318700    2.54989100   -0.07525700
 C                  3.88742600    1.22133100   -0.11240800
 C                  5.18376800    0.65826000    0.13423800
 C                  4.98559700   -0.66856000    0.46058000
 O                  3.63348100   -0.96932900    0.42435800
 C                 -5.02086200    0.60335100    0.56325300
 C                 -5.14426200   -0.69295000    0.10452500
 C                 -3.81999500   -1.14456200   -0.21366400
 C                 -2.94138000   -0.09429700    0.04776600
 O                 -3.69053500    0.99405000    0.53923200
 H                  5.64170600   -1.48209900    0.72617000
 H                  6.13324500    1.16983200    0.07836100
 H                  3.65032700    2.23648400   -0.37716500
 H                 -3.52807800   -2.11509000   -0.57854800
 H                 -6.06120800   -1.25547100    0.01012600
 H                 -5.72097700    1.34051600    0.92298400
 C                 -0.87034300    3.57057300   -0.32152400
 C                  0.56268900    3.64003600   -0.17300300
 H                 -1.45666400    4.47361700   -0.47192800
 H                  1.07101000    4.60097100   -0.15205900
 S                  0.14196300   -3.55390900   -0.21766100

 1 2 1.5 6 1.5 7 1.0
 2 3 1.0 8 1.5
 3 4 1.5 9 1.5
 4 5 1.5 19 1.0
 5 6 1.0 10 1.0
 6 11 1.0
 7 12 1.5 15 1.0
 8 31 1.0
 9 31 1.0
 10 27 2.0
 11 28 2.0
 12 13 1.5 23 1.0
 13 14 2.0 22 1.0
 14 15 1.0 21 1.0
 15
 16 17 2.0 20 1.0 26 1.0
 17 18 1.5 25 1.0
 18 19 1.5 24 1.0
 19 20 1.0
 20
 21
 22
 23
 24
 25
 26
 27 28 1.5 29 1.0
 28 30 1.0
 29
 30
 31

