%chk=C-OTeO1b-UV.chk
# td=(nstates=10) b3lyp/lanl2dz geom=connectivity

C-OTeO1b-UV

0 1
 C                 -1.38317200    0.95159800   -0.02747200
 C                 -0.80582500   -0.37893900   -0.06393800
 C                  0.68611300   -0.56773700   -0.04063300
 C                  1.57521300    0.57674400   -0.03496300
 C                  0.97369100    1.84804300   -0.17696900
 C                 -0.48121300    2.03649300   -0.12619800
 C                 -2.81860700    1.14953100    0.09603800
 N                 -1.57639700   -1.48309700   -0.14426000
 N                  1.16074400   -1.83050000   -0.06062300
 N                  1.79837300    2.95299400   -0.40698600
 N                 -0.99890600    3.33553700   -0.15303900
 C                 -3.68820300    2.17065900   -0.27488200
 C                 -5.01175400    1.78664000    0.12938400
 C                 -4.89678200    0.55627900    0.74441500
 O                 -3.57349100    0.14279900    0.73663300
 C                  5.09745000    0.96121300    0.71795600
 C                  5.18011100   -0.31697900    0.20316800
 C                  3.84773100   -0.69426000   -0.17795100
 C                  3.00802900    0.38016600    0.10132000
 O                  3.78675000    1.41111100    0.66867900
 H                 -5.59851000   -0.11735000    1.20995000
 H                 -5.92241400    2.34923800   -0.01429800
 H                 -3.39181400    3.08151500   -0.76548800
 H                  3.52387700   -1.63258200   -0.59524400
 H                  6.07492700   -0.91485800    0.11224700
 H                  5.81619900    1.64858800    1.13501300
 C                  1.25140000    4.15237600   -0.47896000
 C                 -0.16872500    4.35167400   -0.30501600
 H                  1.90687500    4.99478400   -0.68625400
 H                 -0.59085300    5.35385900   -0.30966600
 Te                -0.39238100   -3.11153900   -0.14781200

 1 2 1.0 6 1.5 7 1.0
 2 3 1.0 8 1.5
 3 4 1.0 9 1.5
 4 5 1.5 19 1.0
 5 6 1.0 10 1.0
 6 11 1.0
 7 12 1.5 15 1.0
 8 31 1.0
 9 31 1.0
 10 27 2.0
 11 28 2.0
 12 13 1.5 23 1.0
 13 14 2.0 22 1.0
 14 15 1.0 21 1.0
 15
 16 17 2.0 20 1.0 26 1.0
 17 18 1.5 25 1.0
 18 19 1.5 24 1.0
 19 20 1.0
 20
 21
 22
 23
 24
 25
 26
 27 28 1.5 29 1.0
 28 30 1.0
 29
 30
 31

