%chk=C-SeSSe1a-UV.chk
# td=(nstates=10) b3lyp/lanl2dz geom=connectivity

C-SeSSe1a-UV

0 1
 C                  1.52250300    0.37320000    0.00011100
 C                  0.74688800    1.59992400    0.00040800
 C                 -0.74686900    1.59993700    0.00046500
 C                 -1.52249300    0.37323800    0.00006700
 C                 -0.73000100   -0.80530800    0.00012100
 C                  0.72999200   -0.80533900    0.00024000
 C                  2.97510400    0.35981700   -0.00010000
 N                  1.29567400    2.83452900    0.00080700
 N                 -1.29564900    2.83454000    0.00093900
 N                 -1.39805000   -2.02228800    0.00030700
 N                  1.39795500   -2.02239600    0.00064500
 C                  3.82155200    1.47291100   -0.00035100
 C                  5.22856100    1.20984900   -0.00044900
 C                  5.57010100   -0.12799000   -0.00035300
 Se                 4.04608300   -1.27185400   -0.00006300
 C                 -5.57007100   -0.12797000   -0.00106700
 C                 -5.22853500    1.20987000    0.00002100
 C                 -3.82153000    1.47293100    0.00042800
 C                 -2.97508400    0.35984000   -0.00018300
 Se                -4.04605200   -1.27183400   -0.00142100
 H                  6.57318700   -0.53780300   -0.00037900
 H                  5.96349700    2.00917800   -0.00057200
 H                  3.41696000    2.47607500   -0.00042600
 H                 -3.41692200    2.47608600    0.00125700
 H                 -5.96346600    2.00920300    0.00055600
 H                 -6.57315300   -0.53779200   -0.00159700
 C                 -0.72074900   -3.15701700    0.00080500
 C                  0.72054300   -3.15706200    0.00104000
 H                 -1.28171600   -4.08735500    0.00111200
 H                  1.28139800   -4.08747000    0.00158700
 S                  0.00001200    4.01809800    0.00142800

 1 2 1.0 6 1.5 7 1.0
 2 3 1.0 8 1.5
 3 4 1.0 9 1.5
 4 5 1.5 19 1.0
 5 6 1.0 10 1.0
 6 11 1.0
 7 12 1.5 15 1.0
 8 31 1.0
 9 31 1.0
 10 27 2.0
 11 28 2.0
 12 13 1.5 23 1.0
 13 14 2.0 22 1.0
 14 15 1.0 21 1.0
 15
 16 17 2.0 20 1.0 26 1.0
 17 18 1.5 25 1.0
 18 19 1.5 24 1.0
 19 20 1.0
 20
 21
 22
 23
 24
 25
 26
 27 28 1.5 29 1.0
 28 30 1.0
 29
 30
 31

