%chk=C-SeTeSe1a-UV.chk
# td=(nstates=10) b3lyp/lanl2dz geom=connectivity

C-SeTeSe1a-UV

0 1
 C                 -1.52251100   -0.23513200   -0.00145300
 C                 -0.75911100    1.01093600   -0.00171100
 C                  0.75917400    1.01091200    0.00170600
 C                  1.52254800   -0.23514600    0.00252700
 C                  0.72965700   -1.41066800   -0.00176300
 C                 -0.72955400   -1.41062900   -0.00175400
 C                 -2.97788400   -0.26971900   -0.00115000
 N                 -1.36675400    2.21228000   -0.00452500
 N                  1.36690000    2.21223400    0.00214700
 N                  1.39527700   -2.62945500   -0.00642800
 N                 -1.39521400   -2.62938200   -0.00243300
 C                 -3.84826900    0.82431000   -0.00551400
 C                 -5.25092900    0.53651700   -0.00269900
 C                 -5.56946300   -0.80641200    0.00488800
 Se                -4.02367800   -1.92269400    0.00699200
 C                  5.56931100   -0.80670000    0.00617600
 C                  5.25094300    0.53626400    0.01751600
 C                  3.84831200    0.82428500    0.01736700
 C                  2.97787900   -0.26966900    0.00615400
 Se                 4.02346800   -1.92278300   -0.00528700
 H                 -6.56554500   -1.23333500    0.00818600
 H                 -5.99900100    1.32387800   -0.00639500
 H                 -3.45551800    1.83141200   -0.01067800
 H                  3.45576400    1.83149300    0.02473900
 H                  5.99915300    1.32345600    0.02585400
 H                  6.56531600   -1.23380000    0.00398300
 C                  0.72064200   -3.76493100   -0.00929100
 C                 -0.72066500   -3.76488500   -0.00599800
 H                  1.28302300   -4.69452900   -0.01418900
 H                 -1.28318900   -4.69440500   -0.00667700
 Te                 0.00010000    3.68300600   -0.00296300

 1 2 1.0 6 1.5 7 1.0
 2 3 1.0 8 1.5
 3 4 1.0 9 1.5
 4 5 1.5 19 1.0
 5 6 1.0 10 1.0
 6 11 1.0
 7 12 1.5 15 1.0
 8 31 1.0
 9 31 1.0
 10 27 2.0
 11 28 2.0
 12 13 1.5 23 1.0
 13 14 2.0 22 1.0
 14 15 1.0 21 1.0
 15
 16 17 2.0 20 1.0 26 1.0
 17 18 1.5 25 1.0
 18 19 1.5 24 1.0
 19 20 1.0
 20
 21
 22
 23
 24
 25
 26
 27 28 1.5 29 1.0
 28 30 1.0
 29
 30
 31

