%chk=C-SeSeSe1a-UV.chk
# td=(nstates=10) b3lyp/lanl2dz geom=connectivity

C-SeSeSe1a-UV

0 1
 C                 -1.52227600    0.05973000    0.00069500
 C                 -0.75160900    1.29426700    0.00018900
 C                  0.75168200    1.29419600    0.00015100
 C                  1.52220300    0.05962400    0.00065100
 C                  0.72967700   -1.11781600    0.00035900
 C                 -0.72976700   -1.11777300    0.00035800
 C                 -2.97628500    0.03661900    0.00128100
 N                 -1.32776500    2.51454900   -0.00058400
 N                  1.32809200    2.51436500   -0.00065400
 N                  1.39663000   -2.33551500    0.00016700
 N                 -1.39666100   -2.33549100    0.00012200
 Se                 0.00027600    3.81405700   -0.00158900
 C                 -3.83454100    1.14046600    0.00343200
 C                 -5.23947200    0.86502200    0.00331100
 C                 -5.56947700   -0.47542300    0.00084200
 Se                -4.03476100   -1.60556300   -0.00117800
 C                  5.56928800   -0.47562900    0.00082400
 C                  5.23929700    0.86483500    0.00308200
 C                  3.83438400    1.14031800    0.00317600
 C                  2.97616400    0.03645400    0.00120100
 Se                 4.03457200   -1.60575300   -0.00104100
 H                 -6.56905600   -0.89386800    0.00018500
 H                 -5.98103900    1.65833700    0.00500100
 H                 -3.43763900    2.14629700    0.00494200
 H                  3.43745500    2.14615600    0.00454100
 H                  5.98086600    1.65814000    0.00463600
 H                  6.56885300   -0.89409200    0.00023100
 C                  0.72060600   -3.47064100   -0.00000500
 C                 -0.72061700   -3.47062800   -0.00004400
 H                  1.28224100   -4.40063300   -0.00018100
 H                 -1.28224200   -4.40063300   -0.00026800

 1 2 1.0 6 1.5 7 1.0
 2 3 1.0 8 1.5
 3 4 1.0 9 1.5
 4 5 1.5 20 1.0
 5 6 1.0 10 1.0
 6 11 1.0
 7 13 1.5 16 1.0
 8 12 1.0
 9 12 1.0
 10 28 2.0
 11 29 2.0
 12
 13 14 1.5 24 1.0
 14 15 2.0 23 1.0
 15 16 1.0 22 1.0
 16
 17 18 2.0 21 1.0 27 1.0
 18 19 1.5 26 1.0
 19 20 1.5 25 1.0
 20 21 1.0
 21
 22
 23
 24
 25
 26
 27
 28 29 1.5 30 1.0
 29 31 1.0
 30
 31

