%chk=C-SeOSe1a-UV.chk
# td=(nstates=10) b3lyp/lanl2dz geom=connectivity

C-SeOSe1a-UV

0 1
 C                  1.52267200    0.50369500    0.00058200
 C                  0.73165800    1.70973200    0.00081900
 C                 -0.73166100    1.70972000    0.00083500
 C                 -1.52265600    0.50369400    0.00057800
 C                 -0.73206800   -0.67790800    0.00063400
 C                  0.73206000   -0.67791600    0.00064600
 C                  2.97123400    0.51928800    0.00012600
 N                  1.17327600    2.98746500    0.00084600
 N                 -1.17332000    2.98742200    0.00094500
 N                 -1.40268700   -1.89392400    0.00058700
 N                  1.40260900   -1.89397600    0.00062800
 C                  3.78372500    1.65778200   -0.00014400
 C                  5.19649800    1.43143800   -0.00066200
 C                  5.57158300    0.10202900   -0.00087700
 Se                 4.07875100   -1.08098200   -0.00051700
 C                 -5.57154200    0.10205900   -0.00095000
 C                 -5.19642900    1.43148000   -0.00065900
 C                 -3.78364800    1.65781200   -0.00010900
 C                 -2.97120000    0.51928700    0.00011900
 Se                -4.07872800   -1.08098700   -0.00061900
 H                  6.58440200   -0.28253800   -0.00125000
 H                  5.91160100    2.24824300   -0.00088000
 H                  3.36251800    2.65536500    0.00004500
 H                 -3.36240500    2.65539300    0.00012800
 H                 -5.91152200    2.24830400   -0.00084600
 H                 -6.58437900   -0.28249400   -0.00135800
 C                 -0.72111600   -3.02668900    0.00058200
 C                  0.72096900   -3.02670700    0.00061500
 H                 -1.27945700   -3.95850400    0.00053600
 H                  1.27925300   -3.95855600    0.00060100
 O                 -0.00005000    3.78000500    0.00097300

 1 2 1.5 6 1.5 7 1.0
 2 3 1.0 8 1.5
 3 4 1.5 9 1.5
 4 5 1.5 19 1.0
 5 6 1.0 10 1.0
 6 11 1.0
 7 12 1.5 15 1.0
 8 31 1.0
 9 31 1.0
 10 27 2.0
 11 28 2.0
 12 13 1.5 23 1.0
 13 14 2.0 22 1.0
 14 15 1.0 21 1.0
 15
 16 17 2.0 20 1.0 26 1.0
 17 18 1.5 25 1.0
 18 19 1.5 24 1.0
 19 20 1.0
 20
 21
 22
 23
 24
 25
 26
 27 28 1.5 29 1.0
 28 30 1.0
 29
 30
 31

