%chk=C-SOS1a-UV.chk
# td=(nstates=10) b3lyp/lanl2dz geom=connectivity

C-SOS1a-UV

0 1
 C                 -1.52215000   -0.24897400   -0.00002500
 C                 -0.73099500   -1.45398000   -0.00009300
 C                  0.73102500   -1.45396400   -0.00015100
 C                  1.52215100   -0.24894200   -0.00010300
 C                  0.73368100    0.93375100   -0.00004200
 C                 -0.73370200    0.93372600   -0.00004500
 C                 -2.97299900   -0.28847000    0.00009600
 N                 -1.17230800   -2.73241700   -0.00016200
 N                  1.17237500   -2.73238600   -0.00025600
 N                  1.40576400    2.15080100    0.00002800
 N                 -1.40581400    2.15077900   -0.00002900
 C                 -3.77337800   -1.43556300    0.00047600
 C                 -5.18055600   -1.18673900    0.00053000
 C                 -5.49411600    0.15727600    0.00011400
 S                 -4.04147000    1.20017200   -0.00018300
 C                  5.49411800    0.15728300    0.00012000
 C                  5.18053900   -1.18673100   -0.00019200
 C                  3.77335800   -1.43553400   -0.00031400
 C                  2.97299400   -0.28843100   -0.00009400
 S                  4.04148500    1.20020300    0.00030100
 H                 -6.47376100    0.61583800   -0.00000200
 H                 -5.92215200   -1.97773800    0.00085900
 H                 -3.35289300   -2.43207500    0.00075200
 H                  3.35285600   -2.43204300   -0.00053600
 H                  5.92212300   -1.97774000   -0.00034000
 H                  6.47377100    0.61583400    0.00024000
 C                  0.72130700    3.28051000    0.00005700
 C                 -0.72137900    3.28048700    0.00000300
 H                  1.27919400    4.21286000    0.00011700
 H                 -1.27928700    4.21282700    0.00000800
 O                  0.00005200   -3.52442800   -0.00025900

 1 2 1.5 6 1.5 7 1.0
 2 3 1.0 8 1.5
 3 4 1.5 9 1.5
 4 5 1.5 19 1.0
 5 6 1.0 10 1.0
 6 11 1.0
 7 12 1.5 15 1.0
 8 31 1.0
 9 31 1.0
 10 27 2.0
 11 28 2.0
 12 13 1.5 23 1.0
 13 14 2.0 22 1.0
 14 15 1.0 21 1.0
 15
 16 17 2.0 20 1.0 26 1.0
 17 18 1.5 25 1.0
 18 19 1.5 24 1.0
 19 20 1.0
 20
 21
 22
 23
 24
 25
 26
 27 28 1.5 29 1.0
 28 30 1.0
 29
 30
 31

