%chk=C-SSeS1a-UV.chk
# td=(nstates=10) b3lyp/lanl2dz geom=connectivity

C-SSeS1a-UV

0 1
 C                 -1.52200900   -0.25769600   -0.00166000
 C                 -0.75097000    0.97598300   -0.00222200
 C                  0.75102200    0.97593500   -0.00225100
 C                  1.52207400   -0.25781100   -0.00169400
 C                  0.73132000   -1.43620500   -0.00404500
 C                 -0.73137200   -1.43611700   -0.00403900
 C                 -2.97944000   -0.25740000    0.00161200
 N                 -1.32631600    2.19711400   -0.00295900
 N                  1.32624500    2.19711300   -0.00301700
 N                  1.39988500   -2.65510200   -0.00609800
 N                 -1.40021500   -2.65481100   -0.00611100
 C                 -3.82558500    0.85603600    0.00489900
 C                 -5.22406600    0.55936700    0.00915200
 C                 -5.49247800   -0.79352300    0.00920700
 S                 -4.00437300   -1.78581800    0.00372500
 C                  5.49268900   -0.79355900    0.00925300
 C                  5.22422800    0.55931100    0.00895800
 C                  3.82574000    0.85591900    0.00465800
 C                  2.97956100   -0.25751700    0.00155600
 S                  4.00457400   -1.78587000    0.00395000
 H                 -6.45614100   -1.28519800    0.01202000
 H                 -5.99107400    1.32612800    0.01211500
 H                 -3.42847400    1.86032500    0.00426100
 H                  3.42861100    1.86018200    0.00386200
 H                  5.99119200    1.32612300    0.01177500
 H                  6.45639200   -1.28515800    0.01213900
 C                  0.72065800   -3.78684700   -0.00822100
 C                 -0.72128700   -3.78671500   -0.00823400
 H                  1.28135700   -4.71767200   -0.01001900
 H                 -1.28225100   -4.71737400   -0.01005400
 Se                -0.00001600    3.49630900   -0.00391800

 1 2 1.0 6 1.5 7 1.0
 2 3 1.0 8 1.5
 3 4 1.0 9 1.5
 4 5 1.5 19 1.0
 5 6 1.0 10 1.0
 6 11 1.0
 7 12 1.5 15 1.0
 8 31 1.0
 9 31 1.0
 10 27 2.0
 11 28 2.0
 12 13 1.5 23 1.0
 13 14 2.0 22 1.0
 14 15 1.0 21 1.0
 15
 16 17 2.0 20 1.0 26 1.0
 17 18 1.5 25 1.0
 18 19 1.5 24 1.0
 19 20 1.0
 20
 21
 22
 23
 24
 25
 26
 27 28 1.5 29 1.0
 28 30 1.0
 29
 30
 31

