%chk=C-SSS1a-UV.chk
# td=(nstates=10) b3lyp/lanl2dz geom=connectivity

C-SSS1a-UV

0 1
 C                  1.52220700    0.09112400   -0.00034100
 C                  0.74623400    1.31699700   -0.00025700
 C                 -0.74623800    1.31700000    0.00012400
 C                 -1.52221000    0.09113100    0.00009800
 C                 -0.73159900   -1.08835000   -0.00005500
 C                  0.73159600   -1.08835300   -0.00008800
 C                  2.97794300    0.10124400   -0.00048600
 N                  1.29421300    2.55242000   -0.00032400
 N                 -1.29421600    2.55242400    0.00040100
 N                 -1.40134400   -2.30647400   -0.00009000
 N                  1.40134000   -2.30649300    0.00017100
 S                  0.00000200    3.73546200    0.00015800
 C                  3.81242700    1.22352600   -0.00173200
 C                  5.21317000    0.93875800   -0.00124300
 C                  5.49294300   -0.41209400    0.00040700
 S                  4.01376400   -1.41734400    0.00137000
 C                 -5.49293900   -0.41209500   -0.00038900
 C                 -5.21316700    0.93875700    0.00130400
 C                 -3.81242600    1.22352500    0.00155900
 C                 -2.97794200    0.10124500    0.00025400
 S                 -4.01376100   -1.41734500   -0.00147000
 H                  6.46077000   -0.89541800    0.00106300
 H                  5.97386400    1.71166800   -0.00209200
 H                  3.40799700    2.22530800   -0.00284500
 H                 -3.40799500    2.22530600    0.00267800
 H                 -5.97386000    1.71166800    0.00235300
 H                 -6.46076400   -0.89542400   -0.00096700
 C                 -0.72102300   -3.43792100    0.00007000
 C                  0.72102000   -3.43793100    0.00030300
 H                 -1.28124500   -4.36898200    0.00003700
 H                  1.28122800   -4.36900900    0.00058700

 1 2 1.0 6 1.5 7 1.0
 2 3 1.0 8 1.5
 3 4 1.0 9 1.5
 4 5 1.5 20 1.0
 5 6 1.0 10 1.0
 6 11 1.0
 7 13 1.5 16 1.0
 8 12 1.0
 9 12 1.0
 10 28 2.0
 11 29 2.0
 12
 13 14 1.5 24 1.0
 14 15 2.0 23 1.0
 15 16 1.0 22 1.0
 16
 17 18 2.0 21 1.0 27 1.0
 18 19 1.5 26 1.0
 19 20 1.5 25 1.0
 20 21 1.0
 21
 22
 23
 24
 25
 26
 27
 28 29 1.5 30 1.0
 29 31 1.0
 30
 31

