%chk=C-STeS1a-UV.chk
# td=(nstates=10) b3lyp/lanl2dz geom=connectivity

C-STeS1a-UV

0 1
 C                  1.52234900   -0.57914200    0.00065800
 C                  0.75851300    0.66626400    0.00055800
 C                 -0.75850600    0.66627900    0.00049700
 C                 -1.52234800   -0.57910600    0.00038200
 C                 -0.73123000   -1.75551000    0.00026700
 C                  0.73118800   -1.75553700    0.00050500
 C                  2.98143400   -0.59034500    0.00066200
 N                  1.36498500    1.86849000    0.00010700
 N                 -1.36498700    1.86850500   -0.00003600
 N                 -1.39874700   -2.97552200   -0.00014800
 N                  1.39861900   -2.97559000    0.00057900
 C                  3.84000200    0.51346700    0.00178900
 C                  5.23594100    0.20427100    0.00098200
 C                  5.49233500   -1.15073100   -0.00076700
 S                  3.99477100   -2.12938500   -0.00130700
 C                 -5.49228800   -1.15066800    0.00091800
 C                 -5.23590400    0.20434000    0.00021000
 C                 -3.83996600    0.51354100    0.00005200
 C                 -2.98141900   -0.59028600    0.00037700
 S                 -3.99473900   -2.12933800    0.00104500
 H                  6.45158200   -1.65110300   -0.00160600
 H                  6.00966900    0.96444300    0.00167700
 H                  3.44716800    1.51912200    0.00298200
 H                 -3.44713200    1.51920200   -0.00033500
 H                 -6.00963800    0.96450800   -0.00013500
 H                 -6.45152700   -1.65104900    0.00119000
 C                 -0.72120500   -4.10766500   -0.00013400
 C                  0.72099300   -4.10769700    0.00029900
 H                 -1.28280700   -5.03806400   -0.00049400
 H                  1.28252900   -5.03813300    0.00044300
 Te                 0.00002400    3.33924300   -0.00089600

 1 2 1.0 6 1.5 7 1.0
 2 3 1.0 8 1.5
 3 4 1.0 9 1.5
 4 5 1.5 19 1.0
 5 6 1.0 10 1.0
 6 11 1.0
 7 12 1.5 15 1.0
 8 31 1.0
 9 31 1.0
 10 27 2.0
 11 28 2.0
 12 13 1.5 23 1.0
 13 14 2.0 22 1.0
 14 15 1.0 21 1.0
 15
 16 17 2.0 20 1.0 26 1.0
 17 18 1.5 25 1.0
 18 19 1.5 24 1.0
 19 20 1.0
 20
 21
 22
 23
 24
 25
 26
 27 28 1.5 29 1.0
 28 30 1.0
 29
 30
 31

