%chk=C-TeOTe1a-UV.chk
# td=(nstates=10) b3lyp/lanl2dz geom=connectivity

C-TeOTe1a-UV

0 1
 C                  1.52310700    0.76097800    0.00021400
 C                  0.73184000    1.96761400   -0.00054600
 C                 -0.73190500    1.96752600   -0.00056100
 C                 -1.52312600    0.76079200    0.00022200
 C                 -0.73057900   -0.42113100    0.00034700
 C                  0.73070800   -0.42097100    0.00033500
 C                  2.96665600    0.74031900    0.00085800
 N                  1.17479300    3.24402800   -0.00159200
 N                 -1.17483400    3.24397400   -0.00169600
 N                 -1.39726500   -1.63668900    0.00072000
 N                  1.39776800   -1.63632200    0.00069400
 C                  3.80321700    1.86076400    0.00276600
 C                  5.22277400    1.65044700    0.00329200
 C                  5.67030500    0.34154200    0.00142200
 Te                 4.10804600   -1.03605700   -0.00105900
 C                 -5.67042900    0.34164800    0.00138800
 C                 -5.22279400    1.65050500    0.00326500
 C                 -3.80322300    1.86069100    0.00276100
 C                 -2.96671200    0.74019100    0.00086100
 Te                -4.10822000   -1.03611700   -0.00107300
 H                  6.71814700    0.05790000    0.00140500
 H                  5.90560700    2.49700200    0.00486400
 H                  3.39154300    2.86474800    0.00387800
 H                 -3.39150000    2.86463900    0.00388000
 H                 -5.90555900    2.49711200    0.00482600
 H                 -6.71828000    0.05808400    0.00135900
 C                 -0.71952800   -2.77413300    0.00156300
 C                  0.72043100   -2.77393700    0.00154000
 H                 -1.27930000   -3.70488600    0.00213500
 H                  1.28056700   -3.70447400    0.00209200
 O                  0.00001800    4.03761600   -0.00234900

 1 2 1.5 6 1.5 7 1.5
 2 3 1.0 8 1.5
 3 4 1.5 9 1.5
 4 5 1.5 19 1.5
 5 6 1.0 10 1.0
 6 11 1.0
 7 12 1.5 15 1.0
 8 31 1.0
 9 31 1.0
 10 27 1.5
 11 28 1.5
 12 13 1.5 23 1.0
 13 14 2.0 22 1.0
 14 15 1.0 21 1.0
 15
 16 17 2.0 20 1.0 26 1.0
 17 18 1.5 25 1.0
 18 19 1.5 24 1.0
 19 20 1.0
 20
 21
 22
 23
 24
 25
 26
 27 28 1.5 29 1.0
 28 30 1.0
 29
 30
 31

