%chk=C-TeSeTe1a-UV.chk
# td=(nstates=10) b3lyp/lanl2dz geom=connectivity

C-TeSeTe1a-UV

0 1
 C                  1.52213700    0.35986100    0.00135900
 C                  0.75172300    1.59482200    0.00146400
 C                 -0.75159100    1.59504800    0.00146600
 C                 -1.52234600    0.36025900    0.00136000
 C                 -0.72877000   -0.81809900    0.00291100
 C                  0.72833200   -0.81828400    0.00291000
 C                  2.96986400    0.30360500   -0.00046200
 N                  1.33053000    2.81327700    0.00165900
 N                 -1.32991900    2.81372100    0.00166600
 N                 -1.39194400   -2.03527700    0.00416000
 N                  1.39128000   -2.03561400    0.00415500
 C                  3.84934000    1.38991600   -0.00250500
 C                  5.26230300    1.13202300   -0.00466700
 C                  5.66775300   -0.18954400   -0.00476900
 Te                 4.05751800   -1.51408100   -0.00116900
 C                 -5.66790300   -0.18939800   -0.00476600
 C                 -5.26267700    1.13219400   -0.00466500
 C                 -3.84974600    1.39030300   -0.00250400
 C                 -2.97010600    0.30409800   -0.00046100
 Te                -4.05752200   -1.51374200   -0.00117100
 H                  6.70643600   -0.50643800   -0.00663400
 H                  5.97126700    1.95734300   -0.00645700
 H                  3.46170300    2.40175700   -0.00242500
 H                 -3.46230400    2.40220600   -0.00242300
 H                 -5.97178100    1.95736100   -0.00645500
 H                 -6.70646300   -0.50648700   -0.00662700
 C                 -0.71966900   -3.17531700    0.00588100
 C                  0.71874200   -3.17547800    0.00588000
 H                 -1.28336200   -4.10382900    0.00719800
 H                  1.28221700   -4.10412400    0.00719600
 Se                 0.00054600    4.11412300    0.00195000

 1 2 1.0 6 1.5 7 1.0
 2 3 1.0 8 1.5
 3 4 1.0 9 1.5
 4 5 1.5 19 1.0
 5 6 1.0 10 1.0
 6 11 1.0
 7 12 1.5 15 1.0
 8 31 1.0
 9 31 1.0
 10 27 1.5
 11 28 1.5
 12 13 1.5 23 1.0
 13 14 2.0 22 1.0
 14 15 1.0 21 1.0
 15
 16 17 2.0 20 1.0 26 1.0
 17 18 1.5 25 1.0
 18 19 1.5 24 1.0
 19 20 1.0
 20
 21
 22
 23
 24
 25
 26
 27 28 1.5 29 1.0
 28 30 1.0
 29
 30
 31

