%chk=C-TeTeTe1a-UV.chk
# td=(nstates=10) b3lyp/lanl2dz geom=connectivity

C-TeTeTe1a-UV

0 1
 C                 -1.52222600    0.08600900   -0.00116200
 C                 -0.75897900    1.33226800   -0.00122400
 C                  0.75901400    1.33219600   -0.00122600
 C                  1.52219700    0.08588200   -0.00116600
 C                  0.72839900   -1.09077900   -0.00194700
 C                 -0.72853700   -1.09069700   -0.00194300
 C                 -2.97090600    0.01938500    0.00002200
 N                 -1.36962700    2.53164800   -0.00101000
 N                  1.36968600    2.53156100   -0.00101500
 N                  1.38996700   -2.30925900   -0.00241600
 N                 -1.39035400   -2.30900000   -0.00240500
 Te                 0.00011700    4.00349000   -0.00049200
 C                 -3.86237400    1.09565400    0.00114900
 C                 -5.27327600    0.82468600    0.00254000
 C                 -5.66704600   -0.50012300    0.00279400
 Te                -4.04347300   -1.80956600    0.00071400
 C                  5.66706400   -0.50029300    0.00279500
 C                  5.27330100    0.82451300    0.00253300
 C                  3.86240800    1.09549500    0.00113900
 C                  2.97089200    0.01925000    0.00001800
 Te                 4.04350100   -1.80967300    0.00071800
 H                 -6.70294400   -0.82624700    0.00405900
 H                 -5.98932200    1.64408800    0.00355200
 H                 -3.47994200    2.10917500    0.00094200
 H                  3.48000600    2.10902300    0.00092400
 H                  5.98934700    1.64391100    0.00354200
 H                  6.70293400   -0.82640700    0.00406500
 C                  0.71878100   -3.44959900   -0.00307500
 C                 -0.71944800   -3.44949100   -0.00306600
 H                  1.28308700   -4.37783200   -0.00355600
 H                 -1.28401000   -4.37756500   -0.00354200

 1 2 1.0 6 1.5 7 1.0
 2 3 1.0 8 1.5
 3 4 1.0 9 1.5
 4 5 1.5 20 1.0
 5 6 1.0 10 1.0
 6 11 1.0
 7 13 1.5 16 1.0
 8 12 1.0
 9 12 1.0
 10 28 1.5
 11 29 1.5
 12
 13 14 1.5 24 1.0
 14 15 2.0 23 1.0
 15 16 1.0 22 1.0
 16
 17 18 2.0 21 1.0 27 1.0
 18 19 1.5 26 1.0
 19 20 1.5 25 1.0
 20 21 1.0
 21
 22
 23
 24
 25
 26
 27
 28 29 1.5 30 1.0
 29 31 1.0
 30
 31

