%mem=500MW
%chk=C-OOO6-UV.chk
# td=(nstates=10) b3lyp/lanl2dz geom=connectivity

C-OOO6-UV

0 1
 C                -17.52022700   -2.13438600   -0.00061500
 C                -16.77749900   -0.90068200   -0.00062300
 C                -15.31708300   -0.86308600   -0.00066900
 C                -14.51161900   -2.05699300   -0.00070900
 C                -15.25357800   -3.28045000   -0.00070300
 C                -16.71634700   -3.31772800   -0.00065800
 C                -18.95376400   -2.16003400   -0.00056700
 N                -17.26121000    0.36493500   -0.00058700
 N                -14.89913800    0.42559000   -0.00066200
 N                -14.54448800   -4.47505300   -0.00073900
 N                -17.36349000   -4.54729100   -0.00065300
 C                -19.93818200   -3.16497300   -0.00055700
 C                -21.20861000   -2.53443500   -0.00047000
 C                -20.98071200   -1.15549400   -0.00043000
 C                -11.10665500   -0.90001400   -0.00077700
 C                -10.80819200   -2.26656900   -0.00081200
 C                -12.04348800   -2.96124100   -0.00079700
 C                -13.07933800   -2.00819700   -0.00075100
 H                -22.18147200   -3.00272300   -0.00042300
 H                -19.72320800   -4.21889400   -0.00059000
 H                -12.20368700   -4.02483800   -0.00081000
 H                 -9.81237900   -2.68391000   -0.00083900
 C                -15.20824200   -5.62379000   -0.00073300
 C                -16.64184100   -5.66041900   -0.00069000
 H                -14.62850300   -6.54273100   -0.00076300
 H                -17.17376200   -6.60784700   -0.00068600
 C                 -6.90579000    1.43746600   -0.00079000
 C                 -6.09624600    0.24621700   -0.00081400
 C                 -4.63597500    0.28869600   -0.00082700
 C                 -3.89733800    1.52515800   -0.00081800
 C                 -4.70557100    2.70661400   -0.00079700
 C                 -6.16790600    2.66409400   -0.00078300
 C                 -8.33747600    1.38435700   -0.00077400
 N                 -6.50988400   -1.04372100   -0.00082400
 N                 -4.14786700   -0.97489600   -0.00084500
 N                 -4.06303500    3.93793100   -0.00078700
 N                 -6.88102100    3.85591400   -0.00076100
 C                 -9.37570600    2.33520900   -0.00074400
 C                -10.60920600    1.63797700   -0.00073900
 C                -10.30775200    0.27197600   -0.00076700
 C                 -0.43278500    0.56158300   -0.00081500
 C                 -0.21238700    1.94314900   -0.00082700
 C                 -1.48467600    2.56645900   -0.00083600
 C                 -2.46510800    1.55590600   -0.00083000
 H                -11.60604000    2.05288000   -0.00071800
 H                 -9.21769800    3.39910600   -0.00072800
 H                 -1.70572400    3.61910900   -0.00083500
 H                  0.75832500    2.41593100   -0.00081700
 C                 -4.78855700    5.04907400   -0.00076600
 C                 -6.22140400    5.00739900   -0.00075300
 H                 -4.25962400    5.99814900   -0.00075800
 H                 -6.80469700    5.92407500   -0.00073600
 C                  3.89733800   -1.52515600   -0.00061100
 C                  4.63597500   -0.28869500   -0.00060100
 C                  6.09624600   -0.24621500   -0.00051800
 C                  6.90579000   -1.43746400   -0.00043800
 C                  6.16790500   -2.66409300   -0.00045200
 C                  4.70557100   -2.70661200   -0.00053700
 C                  2.46510800   -1.55590400   -0.00069000
 N                  4.14786700    0.97489700   -0.00065800
 N                  6.50988400    1.04372200   -0.00052200
 N                  6.88102100   -3.85591200   -0.00037800
 N                  4.06303400   -3.93793000   -0.00054200
 C                  1.48467600   -2.56645700   -0.00072400
 C                  0.21238700   -1.94314700   -0.00078400
 C                  0.43278500   -0.56158000   -0.00078600
 C                 10.30775200   -0.27197500   -0.00025300
 C                 10.60920600   -1.63797600   -0.00019800
 C                  9.37570600   -2.33520700   -0.00026100
 C                  8.33747600   -1.38435600   -0.00035000
 H                 -0.75832500   -2.41592900   -0.00081100
 H                  1.70572300   -3.61910700   -0.00069400
 H                  9.21769800   -3.39910400   -0.00024300
 H                 11.60604000   -2.05287900   -0.00012300
 C                  6.22140300   -5.00739800   -0.00038700
 C                  4.78855700   -5.04907200   -0.00047100
 H                  6.80469600   -5.92407400   -0.00032800
 H                  4.25962300   -5.99814700   -0.00047800
 C                 14.51161900    2.05699300    0.00001100
 C                 15.31708400    0.86308600    0.00010800
 C                 16.77749900    0.90068200    0.00023400
 C                 17.52022700    2.13438600    0.00027000
 C                 16.71634700    3.31772800    0.00016900
 C                 15.25357900    3.28045100    0.00004400
 C                 13.07933900    2.00819800   -0.00010800
 N                 14.89913800   -0.42559000    0.00010500
 N                 17.26121000   -0.36493500    0.00030900
 N                 17.36349100    4.54729100    0.00019600
 N                 14.54448800    4.47505300   -0.00004700
 C                 12.04348800    2.96124100   -0.00021700
 C                 10.80819300    2.26657000   -0.00029200
 C                 11.10665500    0.90001500   -0.00023100
 C                 20.98071200    1.15549300    0.00065600
 C                 21.20861100    2.53443400    0.00060900
 C                 19.93818200    3.16497300    0.00044500
 C                 18.95376500    2.16003400    0.00039500
 H                  9.81238000    2.68391200   -0.00037600
 H                 12.20368800    4.02483900   -0.00023000
 H                 19.72320900    4.21889400    0.00038500
 H                 22.18147300    3.00272200    0.00070300
 C                 16.64184200    5.66041900    0.00010700
 C                 15.20824300    5.62379000   -0.00001700
 H                 17.17376300    6.60784700    0.00013000
 H                 14.62850400    6.54273100   -0.00009000
 C                -28.30764000    0.89765800    0.00038500
 C                -27.50634800   -0.29590500    0.00023300
 C                -26.04557700   -0.26449500    0.00007900
 C                -25.29828200    0.96551600    0.00006700
 C                -26.09781800    2.14787000    0.00022000
 C                -27.56371600    2.11294200    0.00037400
 C                -29.75188100    0.85534300    0.00053800
 N                -27.92877700   -1.58540700    0.00020500
 N                -25.56687200   -1.53233200   -0.00004600
 N                -25.44713600    3.37711300    0.00021900
 N                -28.26953100    3.31453200    0.00051700
 C                -30.77097100    1.80991400    0.00071000
 C                -32.02183900    1.10875300    0.00079100
 C                -31.72513400   -0.24034300    0.00066400
 C                -21.83902100   -0.02396200   -0.00032300
 C                -21.60698900    1.35390900   -0.00029900
 C                -22.87631800    1.98806200   -0.00015200
 C                -23.86225500    0.98652500   -0.00008800
 H                -33.00909400    1.54638700    0.00091800
 H                -30.60953700    2.87325300    0.00076300
 H                -23.08805800    3.04262200   -0.00008300
 H                -20.63269400    1.81916400   -0.00036700
 C                -26.16485400    4.49054100    0.00035900
 C                -27.60167800    4.45763900    0.00051000
 H                -25.63145400    5.43725700    0.00035600
 H                -28.17664400    5.37988600    0.00062300
 H                -32.31930800   -1.14018200    0.00065900
 C                 25.29828200   -0.96551700    0.00136200
 C                 26.04557700    0.26449300    0.00140300
 C                 27.50634800    0.29590300    0.00161100
 C                 28.30764000   -0.89766000    0.00179100
 C                 27.56371600   -2.11294400    0.00175000
 C                 26.09781800   -2.14787200    0.00154000
 C                 23.86225500   -0.98652600    0.00115700
 N                 25.56687300    1.53233000    0.00126100
 N                 27.92877800    1.58540500    0.00159700
 N                 28.26953000   -3.31453500    0.00191500
 N                 25.44713500   -3.37711500    0.00151100
 C                 22.87631800   -1.98806300    0.00106900
 C                 21.60698900   -1.35391000    0.00086100
 C                 21.83902100    0.02396100    0.00082600
 C                 31.72513400    0.24034000    0.00221000
 C                 32.02183900   -1.10875600    0.00232900
 C                 30.77097000   -1.80991600    0.00219300
 C                 29.75188000   -0.85534500    0.00199600
 H                 20.63269300   -1.81916500    0.00075100
 H                 23.08805700   -3.04262400    0.00115400
 H                 30.60953700   -2.87325500    0.00222600
 H                 33.00909300   -1.54639100    0.00248700
 C                 27.60167700   -4.45764100    0.00187900
 C                 26.16485300   -4.49054300    0.00167400
 H                 28.17664300   -5.37988900    0.00201200
 H                 25.63145300   -5.43725900    0.00164600
 H                 32.31930800    1.14017900    0.00224000
 O                 26.73108300    2.34428400    0.00139800
 O                 16.10044600   -1.18355400    0.00022000
 O                  5.30595000    1.79796700   -0.00062700
 O                 -5.30595000   -1.79796500   -0.00085100
 O                -16.10044700    1.18355400   -0.00062700
 O                -26.73108300   -2.34428600    0.00004100
 O                -30.35119000   -0.42250800    0.00052800
 O                -23.21133100   -0.26369700   -0.00023100
 O                -19.60898900   -0.91181600   -0.00053800
 O                -12.48958500   -0.72792400   -0.00075600
 O                 -8.92457500    0.10256300   -0.00078800
 O                 -1.80373700    0.31100900   -0.00085000
 O                  1.80373700   -0.31100700   -0.00076000
 O                  8.92457500   -0.10256100   -0.00034900
 O                 12.48958500    0.72792500   -0.00013500
 O                 19.60898900    0.91181600    0.00047800
 O                 23.21133100    0.26369600    0.00099500
 O                 30.35119000    0.42250500    0.00202300

 1 2 1.5 6 1.5 7 1.5
 2 3 1.0 8 1.5
 3 4 1.5 9 1.5
 4 5 1.5 18 1.5
 5 6 1.0 10 1.0
 6 11 1.0
 7 12 1.5 167 1.0
 8 163 1.0
 9 163 1.0
 10 23 1.5
 11 24 1.5
 12 13 1.5 20 1.0
 13 14 1.5 19 1.0
 14 119 1.5 167 1.0
 15 16 1.5 40 1.5 168 1.0
 16 17 1.5 22 1.0
 17 18 1.5 21 1.0
 18 168 1.0
 19
 20
 21
 22
 23 24 1.5 25 1.0
 24 26 1.0
 25
 26
 27 28 1.5 32 1.5 33 1.5
 28 29 1.0 34 1.5
 29 30 1.5 35 1.5
 30 31 1.5 44 1.5
 31 32 1.0 36 1.0
 32 37 1.0
 33 38 1.5 169 1.0
 34 162 1.0
 35 162 1.0
 36 49 1.5
 37 50 1.5
 38 39 1.5 46 1.0
 39 40 1.5 45 1.0
 40 169 1.0
 41 42 1.5 66 1.5 170 1.0
 42 43 1.5 48 1.0
 43 44 1.5 47 1.0
 44 170 1.0
 45
 46
 47
 48
 49 50 1.5 51 1.0
 50 52 1.0
 51
 52
 53 54 1.5 58 1.5 59 1.5
 54 55 1.0 60 1.5
 55 56 1.5 61 1.5
 56 57 1.5 70 1.5
 57 58 1.0 62 1.0
 58 63 1.0
 59 64 1.5 171 1.0
 60 161 1.0
 61 161 1.0
 62 75 1.5
 63 76 1.5
 64 65 1.5 72 1.0
 65 66 1.5 71 1.0
 66 171 1.0
 67 68 1.5 92 1.5 172 1.0
 68 69 1.5 74 1.0
 69 70 1.5 73 1.0
 70 172 1.0
 71
 72
 73
 74
 75 76 1.5 77 1.0
 76 78 1.0
 77
 78
 79 80 1.5 84 1.5 85 1.5
 80 81 1.0 86 1.5
 81 82 1.5 87 1.5
 82 83 1.5 96 1.5
 83 84 1.0 88 1.0
 84 89 1.0
 85 90 1.5 173 1.0
 86 160 1.0
 87 160 1.0
 88 101 1.5
 89 102 1.5
 90 91 1.5 98 1.0
 91 92 1.5 97 1.0
 92 173 1.0
 93 94 1.5 145 1.5 174 1.0
 94 95 1.5 100 1.0
 95 96 1.5 99 1.0
 96 174 1.0
 97
 98
 99
 100
 101 102 1.5 103 1.0
 102 104 1.0
 103
 104
 105 106 1.5 110 1.5 111 1.5
 106 107 1.0 112 1.5
 107 108 1.5 113 1.5
 108 109 1.5 122 1.5
 109 110 1.0 114 1.0
 110 115 1.0
 111 116 1.5 165 1.0
 112 164 1.0
 113 164 1.0
 114 127 1.5
 115 128 1.5
 116 117 1.5 124 1.0
 117 118 2.0 123 1.0
 118 131 1.0 165 1.0
 119 120 1.5 166 1.0
 120 121 1.5 126 1.0
 121 122 1.5 125 1.0
 122 166 1.0
 123
 124
 125
 126
 127 128 1.5 129 1.0
 128 130 1.0
 129
 130
 131
 132 133 1.5 137 1.5 138 1.5
 133 134 1.0 139 1.5
 134 135 1.5 140 1.5
 135 136 1.5 149 1.5
 136 137 1.0 141 1.0
 137 142 1.0
 138 143 1.5 175 1.0
 139 159 1.0
 140 159 1.0
 141 154 1.5
 142 155 1.5
 143 144 1.5 151 1.0
 144 145 1.5 150 1.0
 145 175 1.0
 146 147 2.0 158 1.0 176 1.0
 147 148 1.5 153 1.0
 148 149 1.5 152 1.0
 149 176 1.0
 150
 151
 152
 153
 154 155 1.5 156 1.0
 155 157 1.0
 156
 157
 158
 159
 160
 161
 162
 163
 164
 165
 166
 167
 168
 169
 170
 171
 172
 173
 174
 175
 176

