%mem=600MW
%chk=C-OSeO6-UV.chk
# td=(nstates=10) b3lyp/lanl2dz geom=connectivity

C-OSeO6-UV

0 1
 C                -18.42442400    0.58456800   -0.90516800
 C                -17.34779300   -0.18855300   -1.49025800
 C                -15.94756500    0.33258600   -1.54608000
 C                -15.61000000    1.63388600   -0.99736700
 C                -16.71098800    2.40839600   -0.51432900
 C                -18.08729900    1.90986200   -0.49798900
 C                -19.73325900   -0.00203000   -0.76980300
 N                -17.54298000   -1.41223700   -2.02426200
 N                -15.04450800   -0.47869600   -2.13756500
 N                -16.45511500    3.68917600   -0.03565200
 N                -19.11357500    2.76078100   -0.10268800
 C                -20.30919200   -1.16299700   -1.31774400
 C                -21.63177500   -1.27801400   -0.81863500
 C                -21.83797400   -0.19406300    0.03669300
 C                -12.00884600    1.92051400   -1.18501400
 C                -12.25608000    3.20973700   -0.70654900
 C                -13.65881400    3.33267700   -0.55305600
 C                -14.25393800    2.11613800   -0.94294000
 H                -22.36095900   -2.04213400   -1.04038800
 H                -19.79996100   -1.82825400   -1.99355100
 H                -14.21289500    4.18465800   -0.20327500
 H                -11.50000100    3.95299800   -0.50484200
 C                -17.46248700    4.44762600    0.37220200
 C                -18.81887600    3.98461200    0.30952600
 H                -17.22860400    5.44173200    0.74471500
 H                -19.64391300    4.63447900    0.58995800
 C                 -7.20238700    1.41729200   -1.63209100
 C                 -6.14976600    0.42873300   -1.76082100
 C                 -4.71246100    0.77838800   -1.54129100
 C                 -4.31630800    2.12625300   -1.17400800
 C                 -5.36865000    3.09513300   -1.13920600
 C                 -6.76996500    2.75736600   -1.39373500
 C                 -8.57910400    1.01130200   -1.74380700
 N                 -6.39929700   -0.85539000   -2.09053500
 N                 -3.83235300   -0.23166700   -1.71041300
 N                 -5.03863100    4.41387300   -0.84597000
 N                 -7.71647000    3.77426700   -1.43472200
 C                 -9.17732500   -0.18922500   -2.17483200
 C                -10.58184100   -0.05456000   -2.04691800
 C                -10.82189100    1.22074600   -1.52908400
 C                 -0.76174200    2.00320000   -0.51311000
 C                 -0.92064500    3.37917100   -0.32772200
 C                 -2.28874400    3.67145900   -0.54728200
 C                 -2.95208300    2.46896400   -0.86606300
 H                -11.34418900   -0.77721400   -2.29471200
 H                 -8.62696500   -1.04317300   -2.53023900
 H                 -2.77754100    4.62690500   -0.48997500
 H                 -0.13073700    4.06614100   -0.06525700
 C                 -5.98472000    5.34230700   -0.85423400
 C                 -7.34265800    5.02028500   -1.18306400
 H                 -5.69432800    6.36236800   -0.61579600
 H                 -8.10127500    5.79638200   -1.24464000
 C                  3.92438000    0.94076000    0.18413500
 C                  4.93508500   -0.06144400   -0.09231600
 C                  6.39230400    0.22372500    0.08359000
 C                  6.85322100    1.52751600    0.52594400
 C                  5.82893900    2.46421300    0.87181000
 C                  4.40183400    2.16976900    0.73306800
 C                  2.54178800    0.65448100   -0.09699100
 N                  4.62557000   -1.30538100   -0.51311800
 N                  7.22644100   -0.80310600   -0.18710400
 N                  6.21407800    3.71027400    1.35487100
 N                  3.47058300    3.10163700    1.17569600
 C                  1.87381000   -0.54372200   -0.41806800
 C                  0.50434100   -0.24581400   -0.62254700
 C                  0.35617000    1.13122600   -0.43637000
 C                 10.46319300    1.45972300    0.31148700
 C                 10.35338500    2.72100600    0.90276100
 C                  8.97189500    2.97187900    1.09008600
 C                  8.25213800    1.85757200    0.61371100
 H                 -0.29359500   -0.92670500   -0.87645800
 H                  2.35768700   -1.50232100   -0.49075300
 H                  8.51060000    3.84533500    1.51386800
 H                 11.18335500    3.36271400    1.15603800
 C                  5.28724300    4.58252500    1.72547400
 C                  3.89142000    4.26082100    1.66022800
 H                  5.62105200    5.54930200    2.09374500
 H                  3.13998800    4.96006700    2.01804400
 C                 15.18340900    0.52499000   -0.36128200
 C                 16.12436200   -0.54531800   -0.63257000
 C                 17.60082500   -0.34806800   -0.50036400
 C                 18.15216300    0.92706300   -0.08018700
 C                 17.20403400    1.97818700    0.11873600
 C                 15.76056300    1.79214000   -0.04384700
 C                 13.76889500    0.26109400   -0.42794400
 N                 15.72950700   -1.77375800   -1.02639500
 N                 18.36437500   -1.42076700   -0.80193900
 N                 17.68291200    3.23099100    0.48897200
 N                 14.91700300    2.88905900    0.08865800
 C                 13.04008700   -0.84791800   -0.90207200
 C                 11.66128400   -0.58665900   -0.71104700
 C                 11.56605900    0.67275300   -0.11388400
 C                 21.72259900    0.43825500    0.23995600
 C                 21.72062100    1.81449500    0.47434800
 C                 20.37180200    2.24517500    0.40075900
 C                 19.56628600    1.12544300    0.11665600
 H                 10.82359200   -1.21807900   -0.96466500
 H                 13.49099900   -1.72806900   -1.32646800
 H                 19.98869600    3.24059600    0.53326300
 H                 22.59668700    2.41418800    0.66817000
 C                 16.83382400    4.23672600    0.64144600
 C                 15.42820000    4.06750300    0.41172200
 H                 17.23942500    5.20089000    0.93746600
 H                 14.74490100    4.90936100    0.48953800
 C                -28.87861800   -2.11554300    2.31708400
 C                -27.96315400   -2.53674400    1.28422500
 C                -26.68817900   -1.80316000    1.02119300
 C                -26.31186000   -0.65006500    1.81987800
 C                -27.27968000   -0.21245800    2.77216900
 C                -28.55122200   -0.90857200    2.98567800
 C                -30.05352900   -2.91393700    2.61194400
 N                -28.21167300   -3.60181400    0.48943400
 N                -25.93642700   -2.28188000    0.00588000
 N                -26.99678200    0.91808200    3.53560500
 N                -29.49834200   -0.35492400    3.84720800
 C                -30.76274100   -3.85539600    1.86818300
 C                -31.82482800   -4.35358700    2.69496000
 C                -31.71122900   -3.71418000    3.91341400
 C                -22.94450400    0.22517600    0.82583100
 C                -23.16841200    1.32938400    1.64983500
 C                -24.47980000    1.19587500    2.17385600
 C                -25.04084700    0.01371500    1.65802000
 H                -32.56767900   -5.08893700    2.42342700
 H                -30.52666100   -4.14490300    0.85811300
 H                -24.99055300    1.85664300    2.85073800
 H                -22.46031900    2.12305200    1.83267800
 C                -27.90483600    1.37194000    4.38507700
 C                -29.19322400    0.74399100    4.51571400
 H                -27.65266500    2.25032000    4.97397000
 H                -29.95618300    1.16889300    5.16312700
 H                -32.26221400   -3.76304100    4.83918000
 C                 26.31476700   -1.11626900    0.52877000
 C                 27.11974700   -2.30283500    0.74301700
 C                 28.57312200   -2.20890300    1.07059900
 C                 29.22554600   -0.92720000    1.22148000
 C                 28.43504600    0.21220100    0.91519900
 C                 27.01863900    0.12136700    0.54345300
 C                 24.89534500   -1.24746900    0.30750400
 N                 26.61993600   -3.55193400    0.63672000
 N                 29.22755500   -3.38589000    1.19293500
 N                 29.03687800    1.46960400    0.98843800
 N                 26.34161200    1.27695900    0.16272700
 C                 24.08724600   -2.35741000    0.00567500
 C                 22.74246700   -1.91374100   -0.08224800
 C                 22.75036300   -0.54307600    0.18160800
 C                 32.48133200   -1.58958600    2.64915500
 C                 32.76930200   -0.31684400    2.19815400
 C                 31.57696100    0.17937900    1.57289100
 C                 30.60666300   -0.81891600    1.65497200
 H                 21.86343800   -2.49750200   -0.30850600
 H                 24.46020000   -3.35880500   -0.12447300
 H                 31.42433000    1.14458400    1.12346800
 H                 33.71099300    0.20191600    2.30059900
 C                 28.33408600    2.54137900    0.66176900
 C                 26.97201000    2.43917300    0.20872400
 H                 28.82348200    3.50942300    0.73669500
 H                 26.42741100    3.32171200   -0.11753000
 H                 33.04394200   -2.34376200    3.17603600
 O                 31.17405700   -1.92160200    2.33099500
 O                 24.05641500   -0.12076100    0.42353100
 O                 20.41715700    0.00372100    0.02182400
 O                 12.84284200    1.20246100    0.06693800
 O                  9.19070100    0.92177300    0.12945300
 O                  1.59043900    1.69496500   -0.11609400
 O                 -1.99143800    1.43548000   -0.84098500
 O                 -9.61014400    1.88304400   -1.33794100
 O                -13.21688700    1.24210000   -1.33335500
 O                -20.68890200    0.59362700    0.07843300
 O                -24.07656000   -0.58660700    0.82083900
 O                -30.64160600   -2.83193600    3.89146400
 Se                28.00540900   -4.76398400    0.92932300
 Se                17.24339300   -2.82787500   -1.28488100
 Se                 6.20768000   -2.26883000   -0.72056400
 Se                -4.77766800   -1.77112100   -2.16649100
 Se               -15.91440100   -2.03396200   -2.68284900
 Se               -26.80251400   -3.76511000   -0.71724800

 1 2 1.0 6 1.5 7 1.5
 2 3 1.0 8 1.5
 3 4 1.0 9 1.5
 4 5 1.5 18 1.5
 5 6 1.0 10 1.0
 6 11 1.0
 7 12 1.5 168 1.0
 8 175 1.0
 9 175 1.0
 10 23 1.5
 11 24 1.5
 12 13 1.5 20 1.0
 13 14 1.5 19 1.0
 14 119 1.5 168 1.0
 15 16 1.5 40 1.5 167 1.0
 16 17 1.5 22 1.0
 17 18 1.5 21 1.0
 18 167 1.0
 19
 20
 21
 22
 23 24 1.5 25 1.0
 24 26 1.0
 25
 26
 27 28 1.0 32 1.5 33 1.5
 28 29 1.0 34 1.5
 29 30 1.0 35 1.5
 30 31 1.5 44 1.5
 31 32 1.0 36 1.0
 32 37 1.0
 33 38 1.5 166 1.0
 34 174 1.0
 35 174 1.0
 36 49 1.5
 37 50 1.5
 38 39 1.5 46 1.0
 39 40 1.5 45 1.0
 40 166 1.0
 41 42 1.5 66 1.5 165 1.0
 42 43 1.5 48 1.0
 43 44 1.5 47 1.0
 44 165 1.0
 45
 46
 47
 48
 49 50 1.5 51 1.0
 50 52 1.0
 51
 52
 53 54 1.0 58 1.5 59 1.5
 54 55 1.0 60 1.5
 55 56 1.0 61 1.5
 56 57 1.5 70 1.5
 57 58 1.0 62 1.0
 58 63 1.0
 59 64 1.5 164 1.0
 60 173 1.0
 61 173 1.0
 62 75 1.5
 63 76 1.5
 64 65 1.5 72 1.0
 65 66 1.5 71 1.0
 66 164 1.0
 67 68 1.5 92 1.5 163 1.0
 68 69 1.5 74 1.0
 69 70 1.5 73 1.0
 70 163 1.0
 71
 72
 73
 74
 75 76 1.5 77 1.0
 76 78 1.0
 77
 78
 79 80 1.0 84 1.5 85 1.5
 80 81 1.0 86 1.5
 81 82 1.0 87 1.5
 82 83 1.5 96 1.5
 83 84 1.0 88 1.0
 84 89 1.0
 85 90 1.5 162 1.0
 86 172 1.0
 87 172 1.0
 88 101 1.5
 89 102 1.5
 90 91 1.5 98 1.0
 91 92 1.5 97 1.0
 92 162 1.0
 93 94 1.5 145 1.5 161 1.0
 94 95 1.5 100 1.0
 95 96 1.5 99 1.0
 96 161 1.0
 97
 98
 99
 100
 101 102 1.5 103 1.0
 102 104 1.0
 103
 104
 105 106 1.5 110 1.5 111 1.0
 106 107 1.0 112 1.5
 107 108 1.0 113 1.5
 108 109 1.5 122 1.5
 109 110 1.0 114 1.0
 110 115 1.0
 111 116 1.5 170 1.0
 112 176 1.0
 113 176 1.0
 114 127 1.5
 115 128 2.0
 116 117 1.5 124 1.0
 117 118 2.0 123 1.0
 118 131 1.0 170 1.0
 119 120 1.5 169 1.0
 120 121 1.5 126 1.0
 121 122 1.5 125 1.0
 122 169 1.0
 123
 124
 125
 126
 127 128 1.5 129 1.0
 128 130 1.0
 129
 130
 131
 132 133 1.0 137 1.5 138 1.5
 133 134 1.0 139 1.5
 134 135 1.5 140 1.5
 135 136 1.5 149 1.0
 136 137 1.0 141 1.0
 137 142 1.0
 138 143 1.5 160 1.0
 139 171 1.0
 140 171 1.0
 141 154 2.0
 142 155 2.0
 143 144 1.5 151 1.0
 144 145 1.5 150 1.0
 145 160 1.0
 146 147 2.0 158 1.0 159 1.0
 147 148 1.5 153 1.0
 148 149 1.5 152 1.0
 149 159 1.0
 150
 151
 152
 153
 154 155 1.5 156 1.0
 155 157 1.0
 156
 157
 158
 159
 160
 161
 162
 163
 164
 165
 166
 167
 168
 169
 170
 171
 172
 173
 174
 175
 176

