%mem=600MW
%chk=C-OSO6-UV.chk
# td=(nstates=10) b3lyp/lanl2dz geom=connectivity

C-OSO6-UV

0 1
 C                 18.32560800    0.01704900   -0.35257700
 C                 17.16539700    0.82580000   -0.66383400
 C                 15.78864400    0.26483600   -0.68203400
 C                 15.53826400   -1.12920300   -0.38131200
 C                 16.70138000   -1.91731600   -0.11098700
 C                 18.05914900   -1.36699500   -0.11157700
 C                 19.62580700    0.63444200   -0.30629700
 N                 17.23497000    2.14096600   -0.96333200
 N                 14.82584900    1.16027100   -0.99910300
 N                 16.52195600   -3.26822900    0.16545500
 N                 19.13374100   -2.21816000    0.11584400
 C                 20.05134800    1.94263700   -0.61393000
 C                 21.44573500    2.02197000   -0.37696400
 C                 21.85109300    0.76512400    0.07665500
 C                 11.95416400   -1.56177200   -0.52944000
 C                 12.27080500   -2.89340400   -0.24638200
 C                 13.68102200   -2.97055800   -0.13872200
 C                 14.21056000   -1.68315900   -0.35891000
 H                 22.09427600    2.87442700   -0.50945900
 H                 19.39840700    2.72365500   -0.96362600
 H                 14.28159400   -3.83677800    0.07188400
 H                 11.55362900   -3.69255100   -0.13775800
 C                 17.57852400   -4.03426400    0.39720600
 C                 18.90863900   -3.50110200    0.35718800
 H                 17.40387400   -5.08517900    0.61318600
 H                 19.77131500   -4.14206000    0.52015100
 C                  7.12163300   -1.19612800   -0.87913500
 C                  6.03761000   -0.23890900   -0.95381200
 C                  4.61131500   -0.64830000   -0.86315600
 C                  4.23435900   -2.03554100   -0.68821600
 C                  5.31933700   -2.96907300   -0.66621700
 C                  6.72293900   -2.56599800   -0.77721500
 C                  8.48169600   -0.72807600   -0.91092700
 N                  6.22787500    1.08859500   -1.11196300
 N                  3.73116200    0.37414000   -0.95713500
 N                  5.01472900   -4.31888500   -0.53278900
 N                  7.70809000   -3.54486000   -0.80436900
 C                  9.02476800    0.55326800   -1.14036700
 C                 10.43361000    0.46078600   -1.04235300
 C                 10.73280800   -0.87186900   -0.74599000
 C                  0.63359700   -2.06991900   -0.39691200
 C                  0.82304700   -3.45039400   -0.28306400
 C                  2.21602900   -3.68684500   -0.37652300
 C                  2.86329500   -2.44588100   -0.54614700
 H                 11.16190000    1.24751200   -1.16719700
 H                  8.43589600    1.43010600   -1.34807900
 H                  2.73103600   -4.62920800   -0.33107100
 H                  0.03528500   -4.17589000   -0.14913400
 C                  5.99322400   -5.21360700   -0.53909300
 C                  7.36226400   -4.81947200   -0.69466100
 H                  5.72188600   -6.26056700   -0.43059100
 H                  8.15540700   -5.56173100   -0.73341200
 C                 -4.13127900   -1.17049400   -0.08358300
 C                 -5.12504900   -0.12702000   -0.23270200
 C                 -6.58321600   -0.40065200   -0.13538200
 C                 -7.08567300   -1.73606600    0.11071900
 C                 -6.08631200   -2.74565000    0.28715700
 C                 -4.64964500   -2.47227300    0.20654300
 C                 -2.73746300   -0.84434700   -0.22872400
 N                 -4.81562700    1.16630600   -0.46738400
 N                 -7.36709000    0.68990200   -0.29424800
 N                 -6.51171800   -4.04336100    0.54672200
 N                 -3.75093600   -3.50684000    0.43296200
 C                 -2.08051700    0.39107700   -0.41132100
 C                 -0.69023000    0.14438700   -0.50188800
 C                 -0.51504500   -1.23709100   -0.38100600
 C                -10.68941700   -1.48205400    0.06724400
 C                -10.62194700   -2.85009700    0.34667200
 C                 -9.24960200   -3.19237000    0.41372900
 C                 -8.49272200   -2.02715900    0.17512400
 H                  0.10476200    0.86143900   -0.63904700
 H                 -2.58520000    1.33997800   -0.46970500
 H                 -8.81705100   -4.15682800    0.60873900
 H                -11.47419300   -3.49863500    0.48020800
 C                 -5.61417000   -5.00036100    0.73749500
 C                 -4.20913100   -4.72310600    0.69179700
 H                 -5.97987400   -6.00449600    0.93623900
 H                 -3.47956900   -5.50801600    0.87413200
 C                -15.38172500   -0.24291800   -0.15928900
 C                -16.27789300    0.88148500   -0.33809100
 C                -17.75586300    0.73944500   -0.25954300
 C                -18.37779400   -0.54057800    0.00481500
 C                -17.47633100   -1.64073800    0.15775400
 C                -16.02022200   -1.50208400    0.07166300
 C                -13.95960000   -0.02859100   -0.22069000
 N                -15.85262300    2.13794600   -0.59088200
 N                -18.43807900    1.89093200   -0.45584800
 N                -18.02050700   -2.89707700    0.40167700
 N                -15.22447700   -2.63200200    0.21405400
 C                -13.19903300    1.13444100   -0.46582800
 C                -11.82801700    0.78931000   -0.40092400
 C                -11.76741200   -0.57745900   -0.11605100
 C                -21.93831700    0.06966500    0.10405100
 C                -22.00036700   -1.30801900    0.32408900
 C                -20.66665900   -1.78793100    0.32649000
 C                -19.80547100   -0.69538000    0.10632000
 H                -10.97347900    1.43397500   -0.53903100
 H                -13.62480300    2.10302300   -0.66358900
 H                -20.32856900   -2.79834200    0.46766900
 H                -22.90808400   -1.87549800    0.46083000
 C                -17.21755800   -3.94241000    0.53952500
 C                -15.79436800   -3.80693300    0.43716300
 H                -17.67472100   -4.90991800    0.73067800
 H                -15.14341800   -4.67153300    0.53887900
 C                 29.27268100    2.43689700    0.83038700
 C                 28.04884900    3.14382200    0.54915200
 C                 26.72300500    2.47358100    0.58664800
 C                 26.60264800    1.06312500    0.89387000
 C                 27.82203100    0.40433600    1.23595200
 C                 29.12008800    1.08533000    1.23926200
 C                 30.54529800    3.11651300    0.68930600
 N                 28.00675700    4.46104400    0.24215000
 N                 25.67917200    3.28973500    0.31292100
 N                 27.76967900   -0.94500500    1.57669700
 N                 30.24799800    0.40231600    1.69154900
 C                 30.88237400    4.46943600    0.63643600
 C                 32.30164800    4.55759400    0.44955300
 C                 32.77270000    3.26159400    0.37725000
 C                 23.10922900    0.23650900    0.47382300
 C                 23.52274800   -1.01771400    0.92738200
 C                 24.91775000   -0.93209300    1.16849900
 C                 25.33646900    0.37510700    0.86018600
 H                 32.89077100    5.45950400    0.37442600
 H                 30.17996200    5.28208400    0.71470900
 H                 25.57609000   -1.70503100    1.52197200
 H                 22.87904900   -1.87384400    1.05922100
 C                 28.87903700   -1.56482600    1.94799300
 C                 30.13470300   -0.86866900    2.03780900
 H                 28.80901000   -2.61981500    2.20068700
 H                 31.02485400   -1.37198000    2.40658900
 H                 33.74926900    2.82637800    0.23607000
 C                -26.47991600    1.79165300    0.14543400
 C                -27.25011000    3.01105100    0.25994800
 C                -28.71832700    2.99628000    0.48448500
 C                -29.44817000    1.75806100    0.62157600
 C                -28.68467200    0.57348100    0.42721000
 C                -27.23965100    0.58574200    0.16998700
 C                -25.04663300    1.86598100    0.01070300
 N                -26.71277800    4.24602700    0.15517500
 N                -29.28908900    4.22338900    0.52967900
 N                -29.34827500   -0.65175600    0.49750700
 N                -26.58559600   -0.61593900   -0.08408800
 C                -24.18325900    2.95125300   -0.22643500
 C                -22.85257700    2.46166100   -0.24121300
 C                -22.92436700    1.08807300   -0.00178400
 C                -32.79833600    2.66141100    1.63292300
 C                -33.08208600    1.34414600    1.33121400
 C                -31.85458000    0.74701700    0.89164100
 C                -30.86426900    1.73019600    0.93263000
 H                -21.94172600    3.01761400   -0.40278000
 H                -24.51142700    3.96736900   -0.36417000
 H                -31.69022900   -0.27097200    0.58676400
 H                -34.04427000    0.86066700    1.41348700
 C                -28.67126800   -1.76806000    0.28438000
 C                -27.26996400   -1.74742900   -0.03787800
 H                -29.21216700   -2.70873700    0.35238700
 H                -26.73737400   -2.66862100   -0.26043500
 H                -33.38335700    3.49050900    1.99792700
 O                -31.45819300    2.92384300    1.39848300
 O                -24.25668600    0.70846600    0.15493400
 O                -20.60707300    0.45754300   -0.03047200
 O                -13.05901400   -1.09046600   -0.00313900
 O                 -9.39882500   -0.96773000   -0.04013000
 O                 -1.75425500   -1.85412900   -0.21451600
 O                  1.86905800   -1.44560900   -0.55763500
 O                  9.55277200   -1.60991500   -0.66237500
 O                 13.12734300   -0.81291100   -0.60022000
 O                 20.75333900   -0.09257200    0.12581600
 O                 24.20459400    1.09622400    0.42691900
 O                 31.72575800    2.36387500    0.52054500
 S                -28.01731900    5.41584200    0.31597900
 S                -17.26714600    3.17242100   -0.73953000
 S                 -6.31860500    2.07531300   -0.57018000
 S                  4.64826800    1.86246600   -1.15587300
 S                 15.60205100    2.71433000   -1.27713700
 S                 26.32076400    4.89747600   -0.00125400

 1 2 1.0 6 1.5 7 1.5
 2 3 1.0 8 1.5
 3 4 1.0 9 1.5
 4 5 1.5 18 1.5
 5 6 1.0 10 1.0
 6 11 1.0
 7 12 1.5 168 1.0
 8 175 1.0
 9 175 1.0
 10 23 1.5
 11 24 1.5
 12 13 1.5 20 1.0
 13 14 1.5 19 1.0
 14 119 1.5 168 1.0
 15 16 1.5 40 1.5 167 1.0
 16 17 1.5 22 1.0
 17 18 1.5 21 1.0
 18 167 1.0
 19
 20
 21
 22
 23 24 1.5 25 1.0
 24 26 1.0
 25
 26
 27 28 1.0 32 1.5 33 1.5
 28 29 1.0 34 1.5
 29 30 1.0 35 1.5
 30 31 1.5 44 1.5
 31 32 1.0 36 1.0
 32 37 1.0
 33 38 1.5 166 1.0
 34 174 1.0
 35 174 1.0
 36 49 1.5
 37 50 1.5
 38 39 1.5 46 1.0
 39 40 1.5 45 1.0
 40 166 1.0
 41 42 1.5 66 1.5 165 1.0
 42 43 1.5 48 1.0
 43 44 1.5 47 1.0
 44 165 1.0
 45
 46
 47
 48
 49 50 1.5 51 1.0
 50 52 1.0
 51
 52
 53 54 1.0 58 1.5 59 1.5
 54 55 1.0 60 1.5
 55 56 1.0 61 1.5
 56 57 1.5 70 1.5
 57 58 1.0 62 1.0
 58 63 1.0
 59 64 1.5 164 1.0
 60 173 1.0
 61 173 1.0
 62 75 1.5
 63 76 1.5
 64 65 1.5 72 1.0
 65 66 1.5 71 1.0
 66 164 1.0
 67 68 1.5 92 1.5 163 1.0
 68 69 1.5 74 1.0
 69 70 1.5 73 1.0
 70 163 1.0
 71
 72
 73
 74
 75 76 1.5 77 1.0
 76 78 1.0
 77
 78
 79 80 1.0 84 1.5 85 1.5
 80 81 1.0 86 1.5
 81 82 1.5 87 1.5
 82 83 1.5 96 1.5
 83 84 1.0 88 1.0
 84 89 1.0
 85 90 1.5 162 1.0
 86 172 1.0
 87 172 1.0
 88 101 1.5
 89 102 1.5
 90 91 1.5 98 1.0
 91 92 1.5 97 1.0
 92 162 1.0
 93 94 1.5 145 1.5 161 1.0
 94 95 1.5 100 1.0
 95 96 1.5 99 1.0
 96 161 1.0
 97
 98
 99
 100
 101 102 1.5 103 1.0
 102 104 1.0
 103
 104
 105 106 1.5 110 1.5 111 1.0
 106 107 1.0 112 1.5
 107 108 1.0 113 1.5
 108 109 1.5 122 1.5
 109 110 1.0 114 1.0
 110 115 1.0
 111 116 1.5 170 1.0
 112 176 1.0
 113 176 1.0
 114 127 1.5
 115 128 2.0
 116 117 1.5 124 1.0
 117 118 2.0 123 1.0
 118 131 1.0 170 1.0
 119 120 1.5 169 1.0
 120 121 1.5 126 1.0
 121 122 1.5 125 1.0
 122 169 1.0
 123
 124
 125
 126
 127 128 1.5 129 1.0
 128 130 1.0
 129
 130
 131
 132 133 1.5 137 1.5 138 1.5
 133 134 1.0 139 1.5
 134 135 1.5 140 1.5
 135 136 1.5 149 1.0
 136 137 1.0 141 1.0
 137 142 1.0
 138 143 1.5 160 1.0
 139 171 1.0
 140 171 1.0
 141 154 2.0
 142 155 1.5
 143 144 1.5 151 1.0
 144 145 1.5 150 1.0
 145 160 1.0
 146 147 2.0 158 1.0 159 1.0
 147 148 1.5 153 1.0
 148 149 1.5 152 1.0
 149 159 1.0
 150
 151
 152
 153
 154 155 1.5 156 1.0
 155 157 1.0
 156
 157
 158
 159
 160
 161
 162
 163
 164
 165
 166
 167
 168
 169
 170
 171
 172
 173
 174
 175
 176

