%mem=500MW
%chk=C-OTeO6-UV.chk
# td=(nstates=10) b3lyp/lanl2dz geom=connectivity

C-OTeO6-UV

0 1
 C                 18.65106300    0.46035800   -0.00002700
 C                 17.57311800   -0.52111700   -0.00008100
 C                 16.12304500   -0.09804500   -0.00014000
 C                 15.75778500    1.31271500   -0.00014700
 C                 16.84477800    2.24331200   -0.00009800
 C                 18.25088300    1.83283500   -0.00003800
 C                 20.02035700    0.00559700    0.00003800
 N                 17.82706900   -1.84317400   -0.00008000
 N                 15.19329300   -1.07194500   -0.00018600
 N                 16.54278000    3.60073000   -0.00010700
 N                 19.23833500    2.81122700    0.00000900
 C                 20.58463000   -1.28802200    0.00006100
 C                 21.99504400   -1.16044400    0.00014500
 C                 22.27798200    0.20685800    0.00017100
 C                 12.13550900    1.45873500   -0.00028700
 C                 12.36440300    2.83771500   -0.00027400
 C                 13.76629800    3.02328300   -0.00021900
 C                 14.38485100    1.75354400   -0.00019900
 H                 22.73345500   -1.94741500    0.00018900
 H                 20.00135400   -2.19159700    0.00002400
 H                 14.30918500    3.95031100   -0.00019600
 H                 11.59422400    3.59378900   -0.00030400
 C                 17.52089400    4.49451900   -0.00006100
 C                 18.89496300    4.09011300   -0.00000200
 H                 17.24602500    5.54638200   -0.00007100
 H                 19.69422600    4.82711900    0.00003600
 C                  7.32009700    0.82056600   -0.00045400
 C                  6.27155300   -0.19272000   -0.00045600
 C                  4.80967700    0.18792700   -0.00047000
 C                  4.40313400    1.58732200   -0.00047700
 C                  5.46248400    2.55033000   -0.00049300
 C                  6.87967600    2.18173100   -0.00048600
 C                  8.70120700    0.40758800   -0.00041800
 N                  6.56409200   -1.50650200   -0.00044900
 N                  3.90887800   -0.81263600   -0.00047700
 N                  5.12055800    3.89779000   -0.00051500
 N                  7.83749700    3.18822900   -0.00051500
 C                  9.30505000   -0.86946000   -0.00040300
 C                 10.70977200   -0.69975700   -0.00035400
 C                 10.95225400    0.67665500   -0.00033700
 C                  0.77849100    1.62752200   -0.00042200
 C                  0.96743400    3.01289200   -0.00046200
 C                  2.36289800    3.23900700   -0.00049000
 C                  3.01843700    1.98744100   -0.00046800
 H                 11.47144700   -1.46430400   -0.00033100
 H                  8.74896100   -1.79004800   -0.00042600
 H                  2.87858500    4.18138500   -0.00052400
 H                  0.17555000    3.74622600   -0.00047000
 C                  6.07201400    4.82049900   -0.00053600
 C                  7.45678100    4.45703400   -0.00054000
 H                  5.76577000    5.86364300   -0.00055300
 H                  8.23418100    5.21701900   -0.00056500
 C                 -4.01659100    0.85858300   -0.00032000
 C                 -5.03778300   -0.18233400   -0.00029100
 C                 -6.50928100    0.15949100   -0.00026300
 C                 -6.95291700    1.54751100   -0.00026100
 C                 -5.91969400    2.53829500   -0.00030100
 C                 -4.49315700    2.20762500   -0.00032900
 C                 -2.62509900    0.48279600   -0.00033800
 N                 -4.71046300   -1.48778900   -0.00029100
 N                 -7.38308100   -0.86477600   -0.00024300
 N                 -6.29748600    3.87622000   -0.00031300
 N                 -3.56259500    3.23928500   -0.00036400
 C                 -1.98671600   -0.77756700   -0.00031900
 C                 -0.58729200   -0.56992200   -0.00034600
 C                 -0.38205900    0.81281000   -0.00038300
 C                -10.57726400    1.48987800   -0.00010300
 C                -10.42616600    2.87966400   -0.00014600
 C                 -9.03708400    3.14374700   -0.00021800
 C                 -8.34796800    1.91058700   -0.00021700
 H                  0.19468600   -1.31371300   -0.00034200
 H                 -2.51737300   -1.71302800   -0.00028900
 H                 -8.54731600    4.09985600   -0.00026300
 H                -11.23754600    3.59137500   -0.00012400
 C                 -5.37094700    4.82390900   -0.00034800
 C                 -3.97695400    4.49750700   -0.00037300
 H                 -5.70491300    5.85851000   -0.00035600
 H                 -3.22011100    5.27796300   -0.00040000
 C                -15.34922300    0.58372400    0.00020400
 C                -16.34011000   -0.48604200    0.00020200
 C                -17.82087000   -0.18675600    0.00025800
 C                -18.30433500    1.18764200    0.00031300
 C                -17.30070700    2.20677300    0.00033100
 C                -15.86469700    1.91761100    0.00028800
 C                -13.94702000    0.24779600    0.00012600
 N                -15.97523100   -1.78147900    0.00015300
 N                -18.66454900   -1.23634100    0.00026100
 N                -17.71736300    3.53386500    0.00039000
 N                -14.96436100    2.97629000    0.00034100
 C                -13.27289800   -0.99330900    0.00010900
 C                -11.87973400   -0.74535900    0.00002100
 C                -11.71461400    0.64245700   -0.00002000
 C                -21.92575500    1.02179900    0.00034900
 C                -21.81793900    2.41425900    0.00046300
 C                -20.43603500    2.72121300    0.00046300
 C                -19.71066600    1.51055400    0.00035300
 H                -11.07668100   -1.46633100   -0.00000900
 H                -13.77597300   -1.94385700    0.00015800
 H                -19.97610600    3.69209400    0.00053500
 H                -22.65030200    3.10127800    0.00053800
 C                -16.81875800    4.50738100    0.00042300
 C                -15.41518200    4.22145200    0.00040800
 H                -17.18216000    5.53203900    0.00046700
 H                -14.68158400    5.02382800    0.00045300
 C                 29.96282800   -0.28535100    0.00028900
 C                 28.85107100   -1.22316700    0.00049600
 C                 27.41712200   -0.74819000    0.00060400
 C                 27.10384700    0.67518600    0.00048100
 C                 28.22277800    1.56034800    0.00044900
 C                 29.61429100    1.09411400    0.00043400
 C                 31.32473100   -0.79736400   -0.00004400
 N                 29.05696100   -2.55592300    0.00060500
 N                 26.45204900   -1.68773300    0.00081800
 N                 27.97389400    2.93080600    0.00043000
 N                 30.64082600    2.03724300    0.00064400
 C                 31.83326500   -2.10185900    0.00037200
 C                 33.26364300   -2.02029500   -0.00038000
 C                 33.58139300   -0.67744800   -0.00126900
 C                 23.48738700    0.95184600    0.00026100
 C                 23.76400900    2.32039700    0.00030100
 C                 25.17379600    2.45626400    0.00039600
 C                 25.74501700    1.16716100    0.00041800
 H                 33.95960500   -2.84616300   -0.00028600
 H                 31.22304000   -2.98728200    0.00111300
 H                 25.74904200    3.36369400    0.00044300
 H                 23.02167400    3.10377000    0.00026200
 C                 28.98521700    3.78368900    0.00051100
 C                 30.34651200    3.32489700    0.00068900
 H                 28.75327800    4.84596600    0.00048700
 H                 31.17356500    4.03091800    0.00089000
 H                 34.50833000   -0.12603200   -0.00204300
 C                -26.66704800   -0.05493700    0.00036200
 C                -27.61817300   -1.16012300    0.00014300
 C                -29.10837400   -0.91429000    0.00010700
 C                -29.64265600    0.43809500    0.00023900
 C                -28.68182000    1.48793900    0.00055200
 C                -27.23204600    1.25422000    0.00062800
 C                -25.25066800   -0.34070000    0.00031800
 N                -27.20654100   -2.44163200    0.00000200
 N                -29.91394400   -1.99559600   -0.00000800
 N                -29.14912500    2.80302100    0.00076500
 N                -26.37215700    2.34853900    0.00098600
 C                -24.53416400   -1.55506000    0.00018700
 C                -23.14904400   -1.25678300    0.00018000
 C                -23.03500000    0.13456200    0.00029900
 C                -33.25876000    0.12890900   -0.00081100
 C                -33.22101800    1.50850000    0.00004300
 C                -31.83771100    1.88178700    0.00059200
 C                -31.07254900    0.70959300    0.00007500
 H                -22.32052700   -1.94825600    0.00010100
 H                -25.00236700   -2.52329100    0.00011000
 H                -31.42408600    2.87335300    0.00127600
 H                -34.07098300    2.17492000    0.00025600
 C                -28.28780100    3.80584900    0.00107500
 C                -26.87057300    3.57318400    0.00120900
 H                -28.68722800    4.81727300    0.00122900
 H                -26.16958300    4.40435500    0.00149900
 H                -34.05310300   -0.60053900   -0.00144600
 O                -31.97110600   -0.38190500   -0.00082900
 O                -24.30567400    0.70708500    0.00038100
 O                -20.65191900    0.45764300    0.00027300
 O                -12.96433500    1.26023900    0.00003800
 O                 -9.32107100    0.88676700   -0.00015400
 O                 -1.61354000    1.46639000   -0.00037700
 O                  2.01781400    0.99034700   -0.00042100
 O                  9.73912200    1.36356500   -0.00037900
 O                 13.35583800    0.78590100   -0.00023600
 O                 21.08676700    0.93028400    0.00009500
 O                 24.68300300    0.23652000    0.00034100
 O                 32.42650100    0.08783400   -0.00108700
 Te               -28.80036000   -3.66948400   -0.00017100
 Te               -17.61202500   -2.95286600    0.00017600
 Te                -6.38079600   -2.61158800   -0.00025500
 Te                 4.86461900   -2.58554500   -0.00046300
 Te                16.09739300   -2.87175700   -0.00016100
 Te                27.29216700   -3.51745900    0.00090600

 1 2 1.0 6 1.5 7 1.5
 2 3 1.0 8 1.5
 3 4 1.0 9 1.5
 4 5 1.5 18 1.5
 5 6 1.0 10 1.0
 6 11 1.0
 7 12 1.5 168 1.0
 8 175 1.0
 9 175 1.0
 10 23 1.5
 11 24 1.5
 12 13 1.5 20 1.0
 13 14 1.5 19 1.0
 14 119 1.5 168 1.0
 15 16 1.5 40 1.5 167 1.0
 16 17 1.5 22 1.0
 17 18 1.5 21 1.0
 18 167 1.0
 19
 20
 21
 22
 23 24 1.5 25 1.0
 24 26 1.0
 25
 26
 27 28 1.0 32 1.5 33 1.5
 28 29 1.0 34 1.5
 29 30 1.0 35 1.5
 30 31 1.5 44 1.5
 31 32 1.0 36 1.0
 32 37 1.0
 33 38 1.5 166 1.0
 34 174 1.0
 35 174 1.0
 36 49 1.5
 37 50 1.5
 38 39 1.5 46 1.0
 39 40 1.5 45 1.0
 40 166 1.0
 41 42 1.5 66 1.5 165 1.0
 42 43 1.5 48 1.0
 43 44 1.5 47 1.0
 44 165 1.0
 45
 46
 47
 48
 49 50 1.5 51 1.0
 50 52 1.0
 51
 52
 53 54 1.0 58 1.5 59 1.5
 54 55 1.0 60 1.5
 55 56 1.0 61 1.5
 56 57 1.5 70 1.5
 57 58 1.0 62 1.0
 58 63 1.0
 59 64 1.5 164 1.0
 60 173 1.0
 61 173 1.0
 62 75 1.5
 63 76 1.5
 64 65 1.5 72 1.0
 65 66 1.5 71 1.0
 66 164 1.0
 67 68 1.5 92 1.5 163 1.0
 68 69 1.5 74 1.0
 69 70 1.5 73 1.0
 70 163 1.0
 71
 72
 73
 74
 75 76 1.5 77 1.0
 76 78 1.0
 77
 78
 79 80 1.0 84 1.5 85 1.5
 80 81 1.0 86 1.5
 81 82 1.0 87 1.5
 82 83 1.5 96 1.5
 83 84 1.0 88 1.0
 84 89 1.0
 85 90 1.5 162 1.0
 86 172 1.0
 87 172 1.0
 88 101 1.5
 89 102 1.5
 90 91 1.5 98 1.0
 91 92 1.5 97 1.0
 92 162 1.0
 93 94 1.5 145 1.5 161 1.0
 94 95 1.5 100 1.0
 95 96 1.5 99 1.0
 96 161 1.0
 97
 98
 99
 100
 101 102 1.5 103 1.0
 102 104 1.0
 103
 104
 105 106 1.0 110 1.5 111 1.0
 106 107 1.0 112 1.5
 107 108 1.0 113 1.5
 108 109 1.5 122 1.5
 109 110 1.0 114 1.0
 110 115 1.0
 111 116 1.5 170 1.0
 112 176 1.0
 113 176 1.0
 114 127 2.0
 115 128 2.0
 116 117 1.5 124 1.0
 117 118 2.0 123 1.0
 118 131 1.0 170 1.0
 119 120 1.5 169 1.0
 120 121 1.5 126 1.0
 121 122 1.5 125 1.0
 122 169 1.0
 123
 124
 125
 126
 127 128 1.5 129 1.0
 128 130 1.0
 129
 130
 131
 132 133 1.0 137 1.5 138 1.5
 133 134 1.0 139 1.5
 134 135 1.0 140 1.5
 135 136 1.5 149 1.0
 136 137 1.0 141 1.0
 137 142 1.0
 138 143 1.5 160 1.0
 139 171 1.0
 140 171 1.0
 141 154 2.0
 142 155 2.0
 143 144 1.5 151 1.0
 144 145 1.5 150 1.0
 145 160 1.0
 146 147 2.0 158 1.0 159 1.0
 147 148 1.5 153 1.0
 148 149 1.5 152 1.0
 149 159 1.0
 150
 151
 152
 153
 154 155 1.5 156 1.0
 155 157 1.0
 156
 157
 158
 159
 160
 161
 162
 163
 164
 165
 166
 167
 168
 169
 170
 171
 172
 173
 174
 175
 176

