%mem=500MW
%chk=C-SeTeSe6-UV.chk
# td=(nstates=10) b3lyp/lanl2dz geom=connectivity

C-SeTeSe6-UV

0 1
 C                -20.08815400    1.19474000    0.00000500
 C                -19.31102100    2.44481400   -0.00001000
 C                -17.79517600    2.42390000   -0.00004400
 C                -17.05443500    1.14999300   -0.00006300
 C                -17.86946200   -0.05035300   -0.00004400
 C                -19.31025800   -0.02867900   -0.00001200
 C                -21.49982400    1.15151100    0.00003500
 N                -19.90285600    3.64460000    0.00000400
 N                -17.16952900    3.60506200   -0.00005700
 N                -17.22120600   -1.25087100   -0.00005200
 N                -19.99330100   -1.21120300    0.00000900
 C                -22.39253400    2.27511000    0.00006000
 C                -23.75392400    2.00600500    0.00009200
 C                -24.13424600    0.63147200    0.00009700
 C                -13.02815900    0.46417800   -0.00015600
 C                -13.37191000    1.85559800   -0.00014700
 C                -14.71940500    2.16270700   -0.00011700
 C                -15.64900400    1.06172900   -0.00009800
 H                -24.49410500    2.80218500    0.00011400
 H                -21.97421800    3.27266100    0.00005500
 H                -15.11071600    3.17125200   -0.00010500
 H                -12.60782500    2.62894200   -0.00016100
 C                -17.91874900   -2.40250700   -0.00003200
 C                -19.32896700   -2.38150900   -0.00000200
 H                -17.35693400   -3.33083300   -0.00004100
 H                -19.91716400   -3.29345300    0.00001500
 C                 -7.72485000   -0.76382700   -0.00022900
 C                 -6.98569900   -2.03962100   -0.00024200
 C                 -5.47008600   -2.06336500   -0.00025300
 C                 -4.69110700   -0.81135100   -0.00025200
 C                 -5.46915400    0.41592300   -0.00023200
 C                 -6.90865800    0.43839200   -0.00022100
 C                 -9.12836000   -0.67362400   -0.00022100
 N                 -7.61284200   -3.21939300   -0.00024600
 N                 -4.88045500   -3.26214400   -0.00026700
 N                 -4.78478500    1.59485600   -0.00021400
 N                 -7.55572200    1.63826000   -0.00019200
 C                -10.06018200   -1.77414300   -0.00021700
 C                -11.40657500   -1.46539900   -0.00019800
 C                -11.74895900   -0.07302800   -0.00018200
 C                 -0.64720100   -0.24792000   -0.00027100
 C                 -1.03408300   -1.62940900   -0.00027900
 C                 -2.38896700   -1.89507800   -0.00027500
 C                 -3.28581000   -0.76508800   -0.00026400
 H                -12.17172300   -2.23767700   -0.00018800
 H                 -9.66967400   -2.78302500   -0.00022400
 H                 -2.81163900   -2.89090800   -0.00027500
 H                 -0.29370500   -2.42551300   -0.00028300
 C                 -5.44812100    2.76855200   -0.00018900
 C                 -6.85600100    2.79052600   -0.00017800
 H                 -4.85780100    3.67895800   -0.00017600
 H                 -7.41765000    3.71890100   -0.00015600
 Se                -2.25903100    0.89321600   -0.00027700
 Se               -10.10288100    1.01623800   -0.00021900
 Se               -14.67341700   -0.62633300   -0.00013300
 Se               -22.52973600   -0.50573000    0.00004800
 C                  4.69111100    0.81141000   -0.00024000
 C                  5.47009300    2.06342200   -0.00023500
 C                  6.98570600    2.03967500   -0.00022100
 C                  7.72485400    0.76387900   -0.00021100
 C                  6.90866000   -0.43833800   -0.00021000
 C                  5.46915600   -0.41586600   -0.00022300
 C                  3.28581400    0.76514800   -0.00025500
 N                  4.88046500    3.26220300   -0.00024500
 N                  7.61285200    3.21944600   -0.00022000
 N                  7.55572100   -1.63820700   -0.00018400
 N                  4.78478400   -1.59479800   -0.00021100
 C                  2.38897100    1.89513800   -0.00026400
 C                  1.03408700    1.62947000   -0.00027100
 C                  0.64720500    0.24798100   -0.00026900
 C                 11.74896000    0.07306300   -0.00015700
 C                 11.40658200    1.46543600   -0.00016800
 C                 10.06019100    1.77418600   -0.00019000
 C                  9.12836400    0.67367100   -0.00020000
 H                  0.29371000    2.42557400   -0.00027300
 H                  2.81164400    2.89096800   -0.00026000
 H                  9.66968700    2.78306900   -0.00019400
 H                 12.17173400    2.23771000   -0.00015500
 C                  6.85599800   -2.79047200   -0.00017500
 C                  5.44811700   -2.76849500   -0.00018900
 H                  7.41764500   -3.71884800   -0.00015500
 H                  4.85779500   -3.67890000   -0.00018100
 Se                10.10287700   -1.01619500   -0.00020200
 Se                 2.25903500   -0.89315600   -0.00027700
 C                 17.05443000   -1.14998500   -0.00003900
 C                 17.79516400   -2.42389600   -0.00002400
 C                 19.31100900   -2.44481900    0.00000900
 C                 20.08814900   -1.19474900    0.00002700
 C                 19.31025900    0.02867400    0.00001300
 C                 17.86946400    0.05035700   -0.00001800
 C                 15.64899900   -1.06171400   -0.00007100
 N                 17.16951000   -3.60505400   -0.00004000
 N                 19.90283700   -3.64460800    0.00002000
 N                 19.99330900    1.21119500    0.00003200
 N                 17.22121500    1.25087900   -0.00002700
 C                 14.71939500   -2.16268700   -0.00009400
 C                 13.37190100   -1.85557100   -0.00012500
 C                 13.02815700   -0.46415000   -0.00013000
 C                 24.13424300   -0.63149700    0.00011600
 C                 23.75391500   -2.00602800    0.00010800
 C                 22.39252400   -2.27512900    0.00007700
 C                 21.49981900   -1.15152600    0.00005700
 H                 12.60781200   -2.62891100   -0.00014200
 H                 15.11070100   -3.17123400   -0.00008600
 H                 21.97420500   -3.27267800    0.00006900
 H                 24.49409400   -2.80221100    0.00012500
 C                 19.32898200    2.38150400    0.00002200
 C                 17.91876400    2.40251100   -0.00000800
 H                 19.91718400    3.29344500    0.00003800
 H                 17.35695500    3.33084000   -0.00001700
 Se                22.52973700    0.50571000    0.00007800
 Se                14.67342100    0.62635300   -0.00009700
 C                -32.52792900   -0.38585100    0.00028100
 C                -31.78833300   -1.64559500    0.00026100
 C                -30.27141600   -1.67350500    0.00022900
 C                -29.49295400   -0.42853900    0.00021800
 C                -30.27205900    0.77940000    0.00023900
 C                -31.72149600    0.79735800    0.00026900
 C                -33.97310400   -0.32564000    0.00031100
 N                -32.41745200   -2.83616500    0.00026900
 N                -29.68054800   -2.87625000    0.00021300
 N                -29.58742200    1.96859200    0.00022800
 N                -32.36779500    2.01591200    0.00028600
 C                -34.86774000   -1.40723700    0.00032600
 C                -36.26081300   -1.09257300    0.00035900
 C                -36.55494600    0.25891200    0.00037100
 C                -25.43759400    0.12526600    0.00012800
 C                -25.81978600   -1.24572300    0.00013200
 C                -27.18585800   -1.51088400    0.00016300
 C                -28.07083100   -0.38938000    0.00018800
 H                -37.02461200   -1.86478700    0.00037300
 H                -34.48885300   -2.41994200    0.00031400
 H                -27.60418400   -2.50829000    0.00016700
 H                -25.08254800   -2.04460400    0.00010900
 C                -30.24532400    3.13156100    0.00024500
 C                -31.66934300    3.15100800    0.00027500
 H                -29.66087700    4.04626300    0.00023600
 H                -32.22317400    4.08525500    0.00029000
 Se               -27.04190400    1.26292700    0.00017500
 Se               -34.99059800    1.34925800    0.00033900
 H                -37.54409300    0.70197100    0.00039400
 C                 29.49295500    0.42849200    0.00022800
 C                 30.27142300    1.67345500    0.00024100
 C                 31.78834000    1.64553900    0.00027000
 C                 32.52793000    0.38579200    0.00028500
 C                 31.72149300   -0.79741500    0.00027000
 C                 30.27205500   -0.77945100    0.00024300
 C                 28.07083200    0.38933800    0.00020000
 N                 29.68055900    2.87620200    0.00023000
 N                 32.41746300    2.83610600    0.00028100
 N                 32.36778600   -2.01597200    0.00028300
 N                 29.58741300   -1.96864000    0.00022900
 C                 27.18586400    1.51084600    0.00018100
 C                 25.81979100    1.24569100    0.00015300
 C                 25.43759300   -0.12529700    0.00014500
 C                 36.55494400   -0.25898700    0.00036500
 C                 36.26081700    1.09249900    0.00035800
 C                 34.86774500    1.40716800    0.00033000
 C                 33.97310500    0.32557500    0.00031300
 H                 25.08255600    2.04457500    0.00013600
 H                 27.60419400    2.50825100    0.00018800
 H                 34.48886200    2.41987500    0.00032200
 H                 37.02461900    1.86471000    0.00037400
 C                 31.66933000   -3.15106400    0.00027000
 C                 30.24531000   -3.13161100    0.00024200
 H                 32.22315700   -4.08531300    0.00028100
 H                 29.66086000   -4.04631100    0.00023100
 Se                34.99059300   -1.34932700    0.00033300
 Se                27.04189900   -1.26296400    0.00018300
 H                 37.54409000   -0.70205000    0.00038600
 Te               -31.07366300   -4.33846600    0.00023600
 Te               -18.51564500    5.11951200   -0.00002600
 Te                -6.26994800   -4.73774000   -0.00026700
 Te                 6.26996100    4.73779600   -0.00023800
 Te                18.51561700   -5.11951200   -0.00001300
 Te                31.07368100    4.33841200    0.00025500

 1 2 1.0 6 1.0 7 1.5
 2 3 1.0 8 1.5
 3 4 1.0 9 1.5
 4 5 1.0 18 1.5
 5 6 1.5 10 1.5
 6 11 1.5
 7 12 1.5 56 1.0
 8 172 1.0
 9 172 1.0
 10 23 1.5
 11 24 1.5
 12 13 1.5 20 1.0
 13 14 1.5 19 1.0
 14 56 1.0 127 1.5
 15 16 1.5 40 1.5 55 1.0
 16 17 2.0 22 1.0
 17 18 1.5 21 1.0
 18 55 1.0
 19
 20
 21
 22
 23 24 1.5 25 1.0
 24 26 1.0
 25
 26
 27 28 1.0 32 1.0 33 1.5
 28 29 1.0 34 1.5
 29 30 1.0 35 1.5
 30 31 1.0 44 1.5
 31 32 1.5 36 1.5
 32 37 1.5
 33 38 1.5 54 1.0
 34 173 1.0
 35 173 1.0
 36 49 1.5
 37 50 1.5
 38 39 2.0 46 1.0
 39 40 1.5 45 1.0
 40 54 1.0
 41 42 1.5 53 1.0 70 1.5
 42 43 2.0 48 1.0
 43 44 1.5 47 1.0
 44 53 1.0
 45
 46
 47
 48
 49 50 1.5 51 1.0
 50 52 1.0
 51
 52
 53
 54
 55
 56
 57 58 1.0 62 1.0 63 1.5
 58 59 1.0 64 1.5
 59 60 1.0 65 1.5
 60 61 1.0 74 1.5
 61 62 1.5 66 1.5
 62 67 1.5
 63 68 1.5 84 1.0
 64 174 1.0
 65 174 1.0
 66 79 1.5
 67 80 1.5
 68 69 2.0 76 1.0
 69 70 1.5 75 1.0
 70 84 1.0
 71 72 1.5 83 1.0 98 1.5
 72 73 2.0 78 1.0
 73 74 1.5 77 1.0
 74 83 1.0
 75
 76
 77
 78
 79 80 1.5 81 1.0
 80 82 1.0
 81
 82
 83
 84
 85 86 1.0 90 1.0 91 1.5
 86 87 1.0 92 1.5
 87 88 1.0 93 1.5
 88 89 1.0 102 1.5
 89 90 1.5 94 1.5
 90 95 1.5
 91 96 1.5 112 1.0
 92 175 1.0
 93 175 1.0
 94 107 1.5
 95 108 1.5
 96 97 2.0 104 1.0
 97 98 1.5 103 1.0
 98 112 1.0
 99 100 1.5 111 1.0 155 1.5
 100 101 1.5 106 1.0
 101 102 1.5 105 1.0
 102 111 1.0
 103
 104
 105
 106
 107 108 1.5 109 1.0
 108 110 1.0
 109
 110
 111
 112
 113 114 1.0 118 1.5 119 1.5
 114 115 1.0 120 1.5
 115 116 1.0 121 1.5
 116 117 1.5 130 1.5
 117 118 1.0 122 1.5
 118 123 1.5
 119 124 1.5 140 1.0
 120 171 1.0
 121 171 1.0
 122 135 1.5
 123 136 1.5
 124 125 1.5 132 1.0
 125 126 2.0 131 1.0
 126 140 1.0 141 1.0
 127 128 1.5 139 1.0
 128 129 1.5 134 1.0
 129 130 1.5 133 1.0
 130 139 1.0
 131
 132
 133
 134
 135 136 1.5 137 1.0
 136 138 1.0
 137
 138
 139
 140
 141
 142 143 1.0 147 1.5 148 1.5
 143 144 1.0 149 1.5
 144 145 1.0 150 1.5
 145 146 1.5 159 1.5
 146 147 1.0 151 1.5
 147 152 1.5
 148 153 1.5 169 1.0
 149 176 1.0
 150 176 1.0
 151 164 1.5
 152 165 1.5
 153 154 1.5 161 1.0
 154 155 1.5 160 1.0
 155 169 1.0
 156 157 2.0 168 1.0 170 1.0
 157 158 1.5 163 1.0
 158 159 1.5 162 1.0
 159 168 1.0
 160
 161
 162
 163
 164 165 1.5 166 1.0
 165 167 1.0
 166
 167
 168
 169
 170
 171
 172
 173
 174
 175
 176

