%mem=500MW
%chk=C-SeSSe6-UV.chk
# td=(nstates=10) b3lyp/lanl2dz geom=connectivity

C-SeSSe6-UV

0 1
 C                 17.08210400   -0.89532400   -0.20945200
 C                 17.84664200   -2.14317100   -0.18246100
 C                 19.33629400   -2.15042500   -0.10306600
 C                 20.11290600   -0.91304000   -0.04871400
 C                 19.32567000    0.30260300   -0.08342000
 C                 17.88457500    0.31176300   -0.16149500
 C                 15.67671600   -0.84149200   -0.27296500
 N                 17.28947700   -3.36220500   -0.22522700
 N                 19.88182500   -3.37697400   -0.08645100
 N                 19.99902400    1.49170400   -0.03840600
 N                 17.22393300    1.50658300   -0.19034400
 S                 18.58008400   -4.57695200   -0.16902900
 C                 14.78363200   -1.96899900   -0.31636000
 C                 13.42826600   -1.69739800   -0.36756700
 C                 13.04928600   -0.31632100   -0.37507200
 C                 24.15009300   -0.38541800    0.19617800
 C                 23.76168100   -1.75467900    0.15566000
 C                 22.39844000   -2.01264100    0.07120200
 C                 21.52294600   -0.87980700    0.03241800
 H                 12.68583100   -2.49067100   -0.40033300
 H                 15.19367800   -2.97042000   -0.30641700
 H                 21.98106500   -3.01032400    0.03489500
 H                 24.49376000   -2.55738000    0.18992100
 C                 19.32263800    2.65306000   -0.06817800
 C                 17.91187100    2.66168700   -0.14596400
 H                 19.89889400    3.57177200   -0.03029600
 H                 17.34501000    3.58650500   -0.17165400
 C                 29.50297100    0.62638000    0.55997500
 C                 30.28106300    1.85705800    0.62838600
 C                 31.77023900    1.84176300    0.73543400
 C                 32.53230400    0.60607600    0.77544500
 C                 31.73767000   -0.58264900    0.70437200
 C                 30.28952900   -0.57484800    0.60069200
 C                 28.08285400    0.59884700    0.46319700
 N                 29.73970800    3.08777900    0.60257000
 N                 32.32913500    3.06998100    0.78968300
 N                 32.39461300   -1.79640100    0.73707300
 N                 29.61418000   -1.76989300    0.53768600
 S                 31.04350300    4.27398800    0.70986700
 C                 27.21670500    1.73011100    0.42086400
 C                 25.84863700    1.47785600    0.32886200
 C                 25.45730600    0.11265300    0.28541200
 C                 36.55760900    0.06522400    1.05205000
 C                 36.22869800    1.40886200    1.04374300
 C                 34.83117400    1.68690400    0.94951900
 C                 33.97287800    0.57899400    0.87727300
 H                 25.12048400    2.28400900    0.29325800
 H                 27.63488500    2.72722400    0.46119400
 H                 34.43294300    2.69258700    0.93284100
 H                 36.97027400    2.19981500    1.10386800
 H                 37.55545400   -0.35246800    1.11688200
 C                 31.70540100   -2.93398800    0.67400300
 C                 30.28230100   -2.92467900    0.57165000
 H                 32.26286200   -3.86552700    0.70310000
 H                 29.70955800   -3.84524100    0.51918800
 Se                35.02837500   -1.06565000    0.93321500
 Se                27.04412000   -1.03964300    0.37280000
 Se                22.56165600    0.76489800    0.11135100
 Se                14.66079500    0.81699000   -0.30755000
 C                 -7.72321700   -0.76841200   -0.53362800
 C                 -6.95802100   -2.01727000   -0.55071100
 C                 -5.46687800   -2.02502900   -0.58050800
 C                 -4.68871400   -0.78385700   -0.59245800
 C                 -5.47938300    0.43529100   -0.58297800
 C                 -6.92058900    0.44250700   -0.55511400
 C                 -9.12727800   -0.71433800   -0.49734800
 N                 -7.51647900   -3.23577000   -0.54150600
 N                 -4.92119800   -3.24903700   -0.59383700
 N                 -4.80545800    1.62103500   -0.59957700
 N                 -7.58251800    1.63529700   -0.54614100
 S                 -6.22514400   -4.45258900   -0.57009600
 C                -10.02247600   -1.84255700   -0.46961400
 C                -11.37723500   -1.57031800   -0.42859900
 C                -11.75587800   -0.18846300   -0.41898900
 C                 -0.64893200   -0.24494700   -0.62309700
 C                 -1.04278900   -1.62389100   -0.62155100
 C                 -2.39994000   -1.88174700   -0.61452800
 C                 -3.28447000   -0.74355900   -0.60836700
 H                -12.12049800   -2.36313800   -0.40460700
 H                 -9.61238800   -2.84397400   -0.48075300
 H                 -2.82096600   -2.87868200   -0.61212100
 H                 -0.30726000   -2.42427200   -0.62452000
 C                 -5.48329700    2.78553100   -0.59069800
 C                 -6.89294200    2.79262400   -0.56364900
 H                 -4.90497700    3.70340100   -0.60477600
 H                 -7.46199800    3.71635800   -0.55579600
 C                  4.68870100    0.78393900   -0.59244100
 C                  5.46686300    2.02511100   -0.58047500
 C                  6.95800600    2.01735400   -0.55067800
 C                  7.72320400    0.76849700   -0.53361100
 C                  6.92057700   -0.44242300   -0.55511100
 C                  5.47937100   -0.43520800   -0.58297600
 C                  3.28445800    0.74364100   -0.60835200
 N                  4.92118100    3.24911900   -0.59378900
 N                  7.51646200    3.23585500   -0.54145700
 N                  7.58250700   -1.63521200   -0.54615400
 N                  4.80544700   -1.62095300   -0.59959100
 S                  6.22512500    4.45267200   -0.57003400
 C                  2.39992900    1.88183000   -0.61449900
 C                  1.04277800    1.62397600   -0.62152700
 C                  0.64891900    0.24503100   -0.62309200
 C                 11.75586500    0.18855200   -0.41898100
 C                 11.37722100    1.57040600   -0.42857000
 C                 10.02246100    1.84264500   -0.46958000
 C                  9.12726500    0.71442400   -0.49733100
 H                  0.30724900    2.42435700   -0.62448500
 H                  2.82095600    2.87876500   -0.61207700
 H                  9.61237200    2.84406100   -0.48070300
 H                 12.12048400    2.36322600   -0.40456600
 C                  6.89293200   -2.79254000   -0.56367800
 C                  5.48328800   -2.78544800   -0.59072800
 H                  7.46198900   -3.71627400   -0.55583700
 H                  4.90496900   -3.70331800   -0.60481800
 Se                10.14399300   -0.94505500   -0.47263700
 Se                 2.25129100   -0.90551100   -0.61879700
 Se                -2.25130500    0.90559500   -0.61878700
 Se               -10.14400300    0.94514300   -0.47262700
 C                -32.53228000   -0.60625700    0.77544200
 C                -31.77019400   -1.84193100    0.73540900
 C                -30.28101700   -1.85719900    0.62835700
 C                -29.50294600   -0.62650600    0.55996300
 C                -30.28952600    0.57470900    0.60070200
 C                -31.73766600    0.58248300    0.70438700
 C                -33.97285300   -0.57919700    0.87727700
 N                -32.32906800   -3.07016000    0.78963900
 N                -29.73964200   -3.08790900    0.60251900
 N                -29.61419700    1.76976600    0.53771600
 N                -32.39463000    1.79622200    0.73711200
 S                -31.04341500   -4.27414400    0.70980000
 C                -34.83113700   -1.68711800    0.94951000
 C                -36.22866400   -1.40909200    1.04374500
 C                -36.55759000   -0.06545800    1.05207500
 C                -25.45729300   -0.11269400    0.28540400
 C                -25.84859600   -1.47790600    0.32883200
 C                -27.21665900   -1.73019000    0.42083200
 C                -28.08283100   -0.59894400    0.46318400
 H                -37.55543900    0.35222200    1.11691900
 H                -36.97023100   -2.20005400    1.10386200
 H                -34.43289400   -2.69279600    0.93281600
 H                -27.63481900   -2.72731200    0.46114500
 H                -25.12042600   -2.28404400    0.29321400
 C                -30.28233800    2.92454000    0.57170300
 C                -31.70543700    2.93382300    0.67406100
 H                -29.70961000    3.84511300    0.51925400
 H                -32.26291500    3.86535100    0.70317600
 C                -20.11291500    0.91310100   -0.04870900
 C                -19.33631600    2.15049500   -0.10304300
 C                -17.84666300    2.14325700   -0.18243900
 C                -17.08211300    0.89541600   -0.20944600
 C                -17.88457200   -0.31167900   -0.16150700
 C                -19.32566700   -0.30253400   -0.08343200
 C                -21.52295300    0.87984600    0.03242400
 N                -19.88185900    3.37703800   -0.08641200
 N                -17.28951100    3.36229800   -0.22518800
 N                -17.22391800   -1.50649200   -0.19037400
 N                -19.99901100   -1.49164100   -0.03843500
 S                -18.58013000    4.57703100   -0.16897100
 C                -22.39846800    2.01266400    0.07122500
 C                -23.76170400    1.75467400    0.15567900
 C                -24.15009000    0.38540500    0.19617600
 C                -13.04929700    0.31641100   -0.37507300
 C                -13.42827100    1.69749000   -0.36754600
 C                -14.78363700    1.96909500   -0.31633600
 C                -15.67672500    0.84159000   -0.27295900
 H                -24.49379800    2.55736100    0.18995200
 H                -21.98111100    3.01035500    0.03493200
 H                -15.19367900    2.97051700   -0.30637800
 H                -12.68583300    2.49075900   -0.40030000
 C                -17.91184600   -2.66160300   -0.14601100
 C                -19.32261400   -2.65299000   -0.06822500
 H                -17.34497600   -3.58641500   -0.17171500
 H                -19.89886200   -3.57170800   -0.03035500
 Se               -14.66080700   -0.81689400   -0.30757000
 Se               -22.56163100   -0.76487900    0.11133100
 Se               -27.04413000    1.03956900    0.37281100
 Se               -35.02836900    1.06543500    0.93325000

 1 2 1.0 6 1.0 7 1.5
 2 3 1.0 8 1.5
 3 4 1.0 9 1.5
 4 5 1.0 19 1.5
 5 6 1.5 10 1.5
 6 11 1.5
 7 13 1.5 59 1.0
 8 12 1.0
 9 12 1.0
 10 24 1.5
 11 25 1.5
 12
 13 14 2.0 21 1.0
 14 15 1.5 20 1.0
 15 59 1.0 102 1.5
 16 17 1.5 42 1.5 58 1.0
 17 18 1.5 23 1.0
 18 19 1.5 22 1.0
 19 58 1.0
 20
 21
 22
 23
 24 25 1.5 26 1.0
 25 27 1.0
 26
 27
 28 29 1.0 33 1.5 34 1.5
 29 30 1.0 35 1.5
 30 31 1.0 36 1.5
 31 32 1.5 46 1.5
 32 33 1.0 37 1.5
 33 38 1.5
 34 40 1.5 57 1.0
 35 39 1.0
 36 39 1.0
 37 52 1.5
 38 53 1.5
 39
 40 41 1.5 48 1.0
 41 42 1.5 47 1.0
 42 57 1.0
 43 44 2.0 51 1.0 56 1.0
 44 45 1.5 50 1.0
 45 46 1.5 49 1.0
 46 56 1.0
 47
 48
 49
 50
 51
 52 53 1.5 54 1.0
 53 55 1.0
 54
 55
 56
 57
 58
 59
 60 61 1.0 65 1.0 66 1.5
 61 62 1.0 67 1.5
 62 63 1.0 68 1.5
 63 64 1.0 78 1.5
 64 65 1.5 69 1.5
 65 70 1.5
 66 72 1.5 117 1.0
 67 71 1.0
 68 71 1.0
 69 83 1.5
 70 84 1.5
 71
 72 73 2.0 80 1.0
 73 74 1.5 79 1.0
 74 117 1.0 161 1.5
 75 76 1.5 101 1.5 116 1.0
 76 77 2.0 82 1.0
 77 78 1.5 81 1.0
 78 116 1.0
 79
 80
 81
 82
 83 84 1.5 85 1.0
 84 86 1.0
 85
 86
 87 88 1.0 92 1.0 93 1.5
 88 89 1.0 94 1.5
 89 90 1.0 95 1.5
 90 91 1.0 105 1.5
 91 92 1.5 96 1.5
 92 97 1.5
 93 99 1.5 115 1.0
 94 98 1.0
 95 98 1.0
 96 110 1.5
 97 111 1.5
 98
 99 100 2.0 107 1.0
 100 101 1.5 106 1.0
 101 115 1.0
 102 103 1.5 114 1.0
 103 104 2.0 109 1.0
 104 105 1.5 108 1.0
 105 114 1.0
 106
 107
 108
 109
 110 111 1.5 112 1.0
 111 113 1.0
 112
 113
 114
 115
 116
 117
 118 119 1.0 123 1.5 124 1.5
 119 120 1.0 125 1.5
 120 121 1.0 126 1.5
 121 122 1.5 136 1.5
 122 123 1.0 127 1.5
 123 128 1.5
 124 130 1.5 176 1.0
 125 129 1.0
 126 129 1.0
 127 142 1.5
 128 143 1.5
 129
 130 131 1.5 139 1.0
 131 132 2.0 138 1.0
 132 137 1.0 176 1.0
 133 134 1.5 160 1.5 175 1.0
 134 135 1.5 141 1.0
 135 136 1.5 140 1.0
 136 175 1.0
 137
 138
 139
 140
 141
 142 143 1.5 144 1.0
 143 145 1.0
 144
 145
 146 147 1.0 151 1.0 152 1.5
 147 148 1.0 153 1.5
 148 149 1.0 154 1.5
 149 150 1.0 164 1.5
 150 151 1.5 155 1.5
 151 156 1.5
 152 158 1.5 174 1.0
 153 157 1.0
 154 157 1.0
 155 169 1.5
 156 170 1.5
 157
 158 159 1.5 166 1.0
 159 160 1.5 165 1.0
 160 174 1.0
 161 162 1.5 173 1.0
 162 163 2.0 168 1.0
 163 164 1.5 167 1.0
 164 173 1.0
 165
 166
 167
 168
 169 170 1.5 171 1.0
 170 172 1.0
 171
 172
 173
 174
 175
 176

