%mem=500MW
%chk=C-SeSeSe6-UV.chk
# td=(nstates=10) b3lyp/lanl2dz geom=connectivity

C-SeSeSe6-UV

0 1
 C                -20.10696300   -1.05584800   -0.00001900
 C                -19.32799000   -2.29783800   -0.00002800
 C                -17.82680300   -2.28386600   -0.00004300
 C                -17.07264300   -1.02458300   -0.00004900
 C                -17.88205000    0.17902000   -0.00003700
 C                -19.32417300    0.16355000   -0.00002200
 C                -21.51935700   -1.01859500   -0.00000500
 N                -19.89496100   -3.51292800   -0.00002500
 N                -17.23625200   -3.48611500   -0.00005200
 N                -17.22722200    1.37678100   -0.00003200
 N                -20.00317600    1.34953600   -0.00000500
 C                -22.40344400   -2.14671100    0.00000400
 C                -23.76745000   -1.88305300    0.00002300
 C                -24.15242300   -0.51149000    0.00003100
 C                -13.04102900   -0.39307900   -0.00007800
 C                -13.40227000   -1.77924300   -0.00007800
 C                -14.75450000   -2.06868700   -0.00007100
 C                -15.66618600   -0.95435200   -0.00006400
 H                -24.50383800   -2.68262800    0.00003400
 H                -21.98697300   -3.14513200    0.00000000
 H                -15.15323700   -3.07442100   -0.00006600
 H                -12.64869600   -2.56271000   -0.00008000
 C                -17.92063700    2.52997700   -0.00001600
 C                -19.33246000    2.51513500   -0.00000300
 H                -17.35614900    3.45663400   -0.00001400
 H                -19.91514500    3.43059000    0.00001100
 C                 -7.72461500    0.76320900   -0.00008800
 C                 -6.97127400    2.02412200   -0.00009300
 C                 -5.47039000    2.04011800   -0.00009600
 C                 -4.69026200    0.79535200   -0.00009300
 C                 -5.47431400   -0.42803200   -0.00008900
 C                 -6.91488500   -0.44317500   -0.00008600
 C                 -9.12889900    0.69165800   -0.00008600
 N                 -7.56281100    3.22525400   -0.00009600
 N                 -4.90469300    3.25342100   -0.00010100
 N                 -4.79473400   -1.61025600   -0.00008700
 N                 -7.56923800   -1.63970300   -0.00008200
 C                -10.04261300    1.80605500   -0.00008700
 C                -11.39375700    1.51532800   -0.00008500
 C                -11.75409100    0.12825400   -0.00008100
 C                 -0.64821300    0.24632300   -0.00009900
 C                 -1.03894200    1.62627600   -0.00010200
 C                 -2.39518200    1.88763700   -0.00010000
 C                 -3.28532600    0.75324400   -0.00009500
 H                -12.14820500    2.29795500   -0.00008600
 H                 -9.64430800    2.81198400   -0.00009000
 H                 -2.81539300    2.88461500   -0.00010300
 H                 -0.30136200    2.42485700   -0.00010600
 C                 -5.46513800   -2.77937900   -0.00008200
 C                 -6.87420700   -2.79421000   -0.00008000
 H                 -4.88064800   -3.69348000   -0.00008100
 H                 -7.43927900   -3.72045400   -0.00007600
 Se                -2.25470100   -0.89999100   -0.00009200
 Se               -10.12472500   -0.98307800   -0.00008100
 Se               -14.66996200    0.71886000   -0.00008300
 Se               -22.55534500    0.63217400    0.00000100
 C                  4.69025900   -0.79531900   -0.00009400
 C                  5.47038500   -2.04008500   -0.00009000
 C                  6.97127000   -2.02409100   -0.00008600
 C                  7.72461300   -0.76317900   -0.00008500
 C                  6.91488500    0.44320600   -0.00008800
 C                  5.47431300    0.42806500   -0.00009200
 C                  3.28532300   -0.75321000   -0.00009800
 N                  4.90468700   -3.25338700   -0.00009100
 N                  7.56280600   -3.22522400   -0.00008400
 N                  7.56923900    1.63973300   -0.00008400
 N                  4.79473400    1.61028900   -0.00009100
 C                  2.39517900   -1.88760200   -0.00009800
 C                  1.03893900   -1.62624000   -0.00009900
 C                  0.64821000   -0.24628800   -0.00010000
 C                 11.75409000   -0.12823100   -0.00007200
 C                 11.39375300   -1.51530500   -0.00007200
 C                 10.04260900   -1.80603000   -0.00007700
 C                  9.12889700   -0.69163100   -0.00008200
 H                  0.30135900   -2.42482100   -0.00009700
 H                  2.81538900   -2.88458100   -0.00009500
 H                  9.64430200   -2.81195700   -0.00007600
 H                 12.14820000   -2.29793300   -0.00006700
 C                  6.87420900    2.79424100   -0.00008400
 C                  5.46514000    2.77941200   -0.00008800
 H                  7.43928300    3.72048500   -0.00008100
 H                  4.88065100    3.69351400   -0.00008800
 Se                10.12472600    0.98310300   -0.00008400
 Se                 2.25469900    0.90002600   -0.00010800
 C                 17.07264400    1.02459200   -0.00004300
 C                 17.82681000    2.28387200   -0.00004100
 C                 19.32799700    2.29783900   -0.00003000
 C                 20.10696600    1.05584600   -0.00002100
 C                 19.32417100   -0.16354900   -0.00002200
 C                 17.88204800   -0.17901400   -0.00003200
 C                 15.66618700    0.95436600   -0.00005200
 N                 17.23626400    3.48612400   -0.00005000
 N                 19.89497300    3.51292600   -0.00003100
 N                 20.00316900   -1.34953800   -0.00001000
 N                 17.22721500   -1.37677300   -0.00003000
 C                 14.75450400    2.06870300   -0.00006100
 C                 13.40227400    1.77926200   -0.00006800
 C                 13.04102900    0.39309900   -0.00006600
 C                 24.15242500    0.51147900    0.00001400
 C                 23.76745500    1.88304400    0.00000600
 C                 22.40344900    2.14670400   -0.00000700
 C                 21.51936000    1.01858900   -0.00001200
 H                 12.64870100    2.56273200   -0.00007500
 H                 15.15324400    3.07443600   -0.00006100
 H                 21.98698000    3.14512600   -0.00001200
 H                 24.50384500    2.68261700    0.00001200
 C                 19.33244800   -2.51513500   -0.00000800
 C                 17.92062500   -2.52997100   -0.00001800
 H                 19.91513000   -3.43059200    0.00000200
 H                 17.35613400   -3.45662600   -0.00001700
 Se                22.55534400   -0.63218200   -0.00000500
 Se                14.66995900   -0.71884400   -0.00005600
 C                -32.55096600    0.49269600    0.00015600
 C                -31.79811200    1.73871500    0.00014600
 C                -30.29572200    1.75996100    0.00012400
 C                -29.51503800    0.52387300    0.00011300
 C                -30.29834200   -0.68048400    0.00012300
 C                -31.74911300   -0.69326900    0.00014400
 C                -33.99590100    0.45020700    0.00017700
 N                -32.39132100    2.95045900    0.00015500
 N                -29.73121000    2.97867900    0.00011700
 N                -29.61701100   -1.87294000    0.00011000
 N                -32.40131000   -1.90948600    0.00015100
 C                -34.87339800    1.54544600    0.00018900
 C                -36.27060100    1.24949800    0.00020800
 C                -36.58241100   -0.09803100    0.00021100
 C                -25.45963300   -0.00890700    0.00005200
 C                -25.84712000    1.35884400    0.00005800
 C                -27.21618600    1.61764500    0.00008000
 C                -28.09175500    0.49141900    0.00009300
 H                -37.02423300    2.03142700    0.00021800
 H                -34.48639600    2.55528400    0.00018400
 H                -27.63321000    2.61573000    0.00008500
 H                -25.11415900    2.16151700    0.00004600
 C                -30.28055900   -3.03147100    0.00011800
 C                -31.70627400   -3.04572200    0.00013900
 H                -29.70109800   -3.94933500    0.00010800
 H                -32.26220700   -3.97866800    0.00014600
 Se               -27.05584700   -1.15378900    0.00008000
 Se               -35.03368000   -1.20918300    0.00019100
 H                -37.57712200   -0.52820300    0.00022400
 C                 29.51503700   -0.52390000    0.00008600
 C                 30.29571600   -1.75999000    0.00009800
 C                 31.79810700   -1.73875100    0.00012100
 C                 32.55096600   -0.49273600    0.00013300
 C                 31.74911800    0.69323300    0.00012200
 C                 30.29834700    0.68045400    0.00009900
 C                 28.09175500   -0.49144100    0.00006400
 N                 29.73119700   -2.97870600    0.00008800
 N                 32.39131000   -2.95049900    0.00013000
 N                 32.40132100    1.90944700    0.00013500
 N                 29.61702200    1.87291400    0.00009200
 C                 27.21618300   -1.61766500    0.00005200
 C                 25.84711700   -1.35886000    0.00003400
 C                 25.45963400    0.00889200    0.00002900
 C                 36.58241400    0.09797000    0.00020000
 C                 36.27059800   -1.24955700    0.00019300
 C                 34.87339300   -1.54549800    0.00017000
 C                 33.99590100   -0.45025500    0.00015600
 H                 25.11415400   -2.16153200    0.00002500
 H                 27.63320500   -2.61575100    0.00005900
 H                 34.48638600   -2.55533500    0.00016300
 H                 37.02422600   -2.03149100    0.00020600
 C                 31.70629000    3.04568600    0.00012700
 C                 30.28057500    3.03144100    0.00010500
 H                 32.26222800    3.97863000    0.00013700
 H                 29.70111800    3.94930900    0.00009800
 Se                35.03368900    1.20913000    0.00017100
 Se                27.05585100    1.15377000    0.00004500
 H                 37.57712800    0.52813700    0.00021700
 Se               -31.07749700    4.27592300    0.00013700
 Se               -18.55307100   -4.82337200   -0.00004200
 Se                -6.24781300    4.56580000   -0.00010300
 Se                 6.24780500   -4.56576800   -0.00008700
 Se                18.55308800    4.82337500   -0.00004500
 Se                31.07747900   -4.27595600    0.00010900

 1 2 1.0 6 1.0 7 1.5
 2 3 1.0 8 1.5
 3 4 1.0 9 1.5
 4 5 1.0 18 1.5
 5 6 1.5 10 1.5
 6 11 1.5
 7 12 1.5 56 1.0
 8 172 1.0
 9 172 1.0
 10 23 1.5
 11 24 1.5
 12 13 1.5 20 1.0
 13 14 1.5 19 1.0
 14 56 1.0 127 1.5
 15 16 1.5 40 1.5 55 1.0
 16 17 2.0 22 1.0
 17 18 1.5 21 1.0
 18 55 1.0
 19
 20
 21
 22
 23 24 1.5 25 1.0
 24 26 1.0
 25
 26
 27 28 1.0 32 1.0 33 1.5
 28 29 1.0 34 1.5
 29 30 1.0 35 1.5
 30 31 1.0 44 1.5
 31 32 1.5 36 1.5
 32 37 1.5
 33 38 1.5 54 1.0
 34 173 1.0
 35 173 1.0
 36 49 1.5
 37 50 1.5
 38 39 2.0 46 1.0
 39 40 1.5 45 1.0
 40 54 1.0
 41 42 1.5 53 1.0 70 1.5
 42 43 2.0 48 1.0
 43 44 1.5 47 1.0
 44 53 1.0
 45
 46
 47
 48
 49 50 1.5 51 1.0
 50 52 1.0
 51
 52
 53
 54
 55
 56
 57 58 1.0 62 1.0 63 1.5
 58 59 1.0 64 1.5
 59 60 1.0 65 1.5
 60 61 1.0 74 1.5
 61 62 1.5 66 1.5
 62 67 1.5
 63 68 1.5 84 1.0
 64 174 1.0
 65 174 1.0
 66 79 1.5
 67 80 1.5
 68 69 2.0 76 1.0
 69 70 1.5 75 1.0
 70 84 1.0
 71 72 1.5 83 1.0 98 1.5
 72 73 2.0 78 1.0
 73 74 1.5 77 1.0
 74 83 1.0
 75
 76
 77
 78
 79 80 1.5 81 1.0
 80 82 1.0
 81
 82
 83
 84
 85 86 1.0 90 1.0 91 1.5
 86 87 1.0 92 1.5
 87 88 1.0 93 1.5
 88 89 1.0 102 1.5
 89 90 1.5 94 1.5
 90 95 1.5
 91 96 1.5 112 1.0
 92 175 1.0
 93 175 1.0
 94 107 1.5
 95 108 1.5
 96 97 2.0 104 1.0
 97 98 1.5 103 1.0
 98 112 1.0
 99 100 1.5 111 1.0 155 1.5
 100 101 1.5 106 1.0
 101 102 1.5 105 1.0
 102 111 1.0
 103
 104
 105
 106
 107 108 1.5 109 1.0
 108 110 1.0
 109
 110
 111
 112
 113 114 1.0 118 1.5 119 1.5
 114 115 1.0 120 1.5
 115 116 1.0 121 1.5
 116 117 1.5 130 1.5
 117 118 1.0 122 1.5
 118 123 1.5
 119 124 1.5 140 1.0
 120 171 1.0
 121 171 1.0
 122 135 1.5
 123 136 1.5
 124 125 1.5 132 1.0
 125 126 2.0 131 1.0
 126 140 1.0 141 1.0
 127 128 1.5 139 1.0
 128 129 1.5 134 1.0
 129 130 1.5 133 1.0
 130 139 1.0
 131
 132
 133
 134
 135 136 1.5 137 1.0
 136 138 1.0
 137
 138
 139
 140
 141
 142 143 1.0 147 1.5 148 1.5
 143 144 1.0 149 1.5
 144 145 1.0 150 1.5
 145 146 1.5 159 1.5
 146 147 1.0 151 1.5
 147 152 1.5
 148 153 1.5 169 1.0
 149 176 1.0
 150 176 1.0
 151 164 1.5
 152 165 1.5
 153 154 1.5 161 1.0
 154 155 1.5 160 1.0
 155 169 1.0
 156 157 2.0 168 1.0 170 1.0
 157 158 1.5 163 1.0
 158 159 1.5 162 1.0
 159 168 1.0
 160
 161
 162
 163
 164 165 1.5 166 1.0
 165 167 1.0
 166
 167
 168
 169
 170
 171
 172
 173
 174
 175
 176

