%mem=500MW
%chk=C-SeOSe6-UV.chk
# td=(nstates=10) b3lyp/lanl2dz geom=connectivity

C-SeOSe6-UV

0 1
 C                 20.16703800   -0.73746900    0.00004100
 C                 19.37615200   -1.95431600    0.00003000
 C                 17.91419600   -1.95198400   -0.00001900
 C                 17.12851800   -0.72984100   -0.00006200
 C                 17.92774900    0.47918800   -0.00005100
 C                 19.37618500    0.47456800    0.00000300
 C                 21.58017200   -0.72934200    0.00008800
 N                 19.81872200   -3.22373000    0.00006200
 N                 17.46635400   -3.21794800   -0.00001600
 N                 17.26025900    1.67315400   -0.00008300
 N                 20.04947900    1.66759000    0.00002600
 C                 22.42481300   -1.88130200    0.00013000
 C                 23.79884300   -1.65152500    0.00017600
 C                 24.21464600   -0.29306900    0.00017500
 C                 13.08539300   -0.25925400   -0.00017100
 C                 13.49961500   -1.62781300   -0.00013400
 C                 14.86516500   -1.86238200   -0.00010100
 C                 15.72097400   -0.70956800   -0.00010600
 H                 24.51443700   -2.46952000    0.00021500
 H                 21.99803000   -2.87656200    0.00012900
 H                 15.28972400   -2.85867800   -0.00006700
 H                 12.77864200   -2.44112400   -0.00012700
 C                 17.94879000    2.82639500   -0.00006400
 C                 19.36548600    2.82234600   -0.00000700
 H                 17.38193700    3.75157400   -0.00009600
 H                 19.93629400    3.74526100    0.00001300
 C                  7.73521800    0.68584800   -0.00027900
 C                  6.94901300    1.90917100   -0.00033000
 C                  5.48745400    1.91208600   -0.00034800
 C                  4.69659500    0.69134900   -0.00031800
 C                  5.49085000   -0.52540000   -0.00027100
 C                  6.93700900   -0.52779800   -0.00025400
 C                  9.13983100    0.66507500   -0.00025600
 N                  7.39701700    3.17434500   -0.00036300
 N                  5.04429700    3.17865100   -0.00039500
 N                  4.81828500   -1.71396500   -0.00023700
 N                  7.60523400   -1.71925600   -0.00021000
 C                  9.99761300    1.81888300   -0.00028300
 C                 11.36189900    1.58329300   -0.00025500
 C                 11.77582400    0.21378500   -0.00020400
 C                  0.65456700    0.23322200   -0.00034400
 C                  1.07480800    1.60281500   -0.00037100
 C                  2.43851000    1.83280700   -0.00036600
 C                  3.29300300    0.67469100   -0.00033300
 H                 12.08359000    2.39599900   -0.00027700
 H                  9.57297700    2.81515600   -0.00032800
 H                  2.86750800    2.82722300   -0.00038200
 H                  0.35596000    2.41805300   -0.00039400
 C                  5.50312200   -2.87276800   -0.00019300
 C                  6.91600100   -2.87520100   -0.00018100
 H                  4.93084600   -3.79449300   -0.00016800
 H                  7.48485000   -3.79907900   -0.00014700
 Se                 2.22974800   -0.94900100   -0.00031500
 Se                10.19826900   -0.96210400   -0.00018000
 Se                14.66302900    0.91637100   -0.00018500
 Se                22.65273400    0.88889400    0.00008900
 O                  6.22215800    3.98939500   -0.00041700
 O                 18.64060900   -4.03106500    0.00002900
 C                 -4.69656800   -0.69093400   -0.00033400
 C                 -5.48740600   -1.91168400   -0.00033000
 C                 -6.94896400   -1.90879600   -0.00031500
 C                 -7.73519400   -0.68548700   -0.00030000
 C                 -6.93700400    0.52817800   -0.00030600
 C                 -5.49084600    0.52580500   -0.00032200
 C                 -3.29297700   -0.67426300   -0.00034300
 N                 -5.04422800   -3.17824100   -0.00034100
 N                 -7.39694600   -3.17397500   -0.00031400
 N                 -7.60524800    1.71962300   -0.00029200
 N                 -4.81830400    1.71438100   -0.00031200
 C                 -2.43848200   -1.83237900   -0.00032500
 C                 -1.07478100   -1.60238500   -0.00032400
 C                 -0.65454000   -0.23279300   -0.00034300
 C                -11.77582300   -0.21357200   -0.00023500
 C                -11.36183100   -1.58307200   -0.00024500
 C                 -9.99754300   -1.81860300   -0.00026700
 C                 -9.13980000   -0.66475400   -0.00027700
 H                 -0.35593400   -2.41762400   -0.00030500
 H                 -2.86748000   -2.82679500   -0.00030500
 H                 -9.57285800   -2.81485500   -0.00028100
 H                -12.08349500   -2.39580200   -0.00023800
 C                 -6.91603700    2.87558300   -0.00028900
 C                 -5.50316000    2.87317400   -0.00029700
 H                 -7.48490400    3.79945000   -0.00027600
 H                 -4.93090000    3.79490900   -0.00029200
 Se               -10.19830500    0.96238400   -0.00024600
 Se                -2.22972300    0.94943200   -0.00038800
 O                 -6.22207400   -3.98900900   -0.00034100
 C                -17.12854900    0.72982900   -0.00015800
 C                -17.91428400    1.95193900   -0.00012200
 C                -19.37624000    1.95420000   -0.00008800
 C                -20.16707200    0.73731600   -0.00008500
 C                -19.37616300   -0.47469300   -0.00013300
 C                -17.92772800   -0.47924700   -0.00016800
 C                -15.72101700    0.70960900   -0.00017700
 N                -17.46649400    3.21791500   -0.00011300
 N                -19.81886700    3.22359100   -0.00006000
 N                -20.04939600   -1.66774200   -0.00014000
 N                -17.26018100   -1.67317200   -0.00021100
 C                -14.86524900    1.86247000   -0.00016400
 C                -13.49969900    1.62795400   -0.00018200
 C                -13.08541400    0.25940200   -0.00021300
 C                -24.21467400    0.29283500    0.00006600
 C                -23.79888300    1.65130500    0.00007300
 C                -22.42486400    1.88109500    0.00002000
 C                -21.58019700    0.72914700   -0.00003700
 H                -12.77874900    2.44128500   -0.00017300
 H                -15.28986300    2.85874200   -0.00014200
 H                -21.99810000    2.87636400    0.00001900
 H                -24.51448800    2.46929000    0.00011900
 C                -19.36534600   -2.82247200   -0.00018200
 C                -17.94865900   -2.82645500   -0.00022000
 H                -19.93611700   -3.74541000   -0.00018800
 H                -17.38175400   -3.75160100   -0.00025400
 Se               -22.65273500   -0.88911100   -0.00003500
 Se               -14.66300700   -0.91628600   -0.00021600
 O                -18.64079100    4.03098200   -0.00008600
 C                 32.63613400    0.60300500    0.00035000
 C                 31.85143300    1.81505200    0.00032700
 C                 30.38847500    1.82370700    0.00030400
 C                 29.59602200    0.61292400    0.00030400
 C                 30.38630700   -0.58520400    0.00032200
 C                 31.84342600   -0.58845000    0.00034900
 C                 34.07770600    0.61061000    0.00036700
 N                 32.30024500    3.08927900    0.00032200
 N                 29.94977100    3.09669400    0.00029000
 N                 29.71005600   -1.78445900    0.00030200
 N                 32.50791700   -1.80066800    0.00036400
 C                 34.90059300    1.74697300    0.00035200
 C                 36.30878900    1.51060400    0.00036100
 C                 36.67584500    0.17661100    0.00038500
 C                 25.53821600    0.18238200    0.00021200
 C                 25.95723600    1.53678200    0.00021900
 C                 27.33656000    1.76044500    0.00025500
 C                 28.17206200    0.61025400    0.00028300
 H                 37.03017000    2.32191400    0.00034500
 H                 34.48345400    2.74626800    0.00032800
 H                 27.76481700    2.75507800    0.00025000
 H                 25.24570000    2.35822100    0.00018200
 C                 30.38672700   -2.93260300    0.00031700
 C                 31.81696400   -2.93723900    0.00035100
 H                 29.81859600   -3.85755000    0.00030200
 H                 32.37492500   -3.86888700    0.00036900
 Se                27.09823200   -1.00189800    0.00031700
 Se                35.17699400   -0.99861500    0.00041900
 O                 31.12808500    3.89372400    0.00029900
 H                 37.68697100   -0.21262000    0.00039300
 C                -29.59601700   -0.61322400    0.00028100
 C                -30.38846100   -1.82401400    0.00026700
 C                -31.85142000   -1.81536800    0.00034200
 C                -32.63612900   -0.60332700    0.00043700
 C                -31.84343200    0.58814000    0.00044900
 C                -30.38631200    0.58490500    0.00037200
 C                -28.17206500   -0.61053300    0.00021600
 N                -29.94974700   -3.09699700    0.00018700
 N                -32.30022600   -3.08959900    0.00030700
 N                -32.50793200    1.80034600    0.00055200
 N                -29.71007300    1.78415700    0.00039300
 C                -27.33654000   -1.76071900    0.00014000
 C                -25.95722800   -1.53703500    0.00008800
 C                -25.53823000   -0.18261800    0.00011500
 C                -36.67583300   -0.17690100    0.00071700
 C                -36.30879000   -1.51089900    0.00061500
 C                -34.90059900   -1.74728400    0.00050700
 C                -34.07769800   -0.61092800    0.00051400
 H                -25.24567000   -2.35845400    0.00003200
 H                -27.76478900   -2.75535600    0.00012100
 H                -34.48347100   -2.74658300    0.00043600
 H                -37.03018000   -2.32220000    0.00062900
 C                -31.81698300    2.93692700    0.00057000
 C                -30.38675500    2.93230300    0.00048700
 H                -32.37495800    3.86856700    0.00064900
 H                -29.81862200    3.85724900    0.00049900
 Se               -35.17697000    0.99830900    0.00062400
 Se               -27.09826300    1.00163600    0.00022400
 O                -31.12805900   -3.89403500    0.00020500
 H                -37.68695600    0.21233800    0.00081300

 1 2 1.0 6 1.5 7 1.5
 2 3 1.0 8 1.5
 3 4 1.0 9 1.5
 4 5 1.0 18 1.5
 5 6 1.0 10 1.5
 6 11 1.5
 7 12 1.5 56 1.0
 8 58 1.0
 9 58 1.0
 10 23 1.5
 11 24 1.5
 12 13 1.5 20 1.0
 13 14 1.5 19 1.0
 14 56 1.0 131 1.5
 15 16 1.5 40 1.5 55 1.0
 16 17 2.0 22 1.0
 17 18 1.5 21 1.0
 18 55 1.0
 19
 20
 21
 22
 23 24 1.5 25 1.0
 24 26 1.0
 25
 26
 27 28 1.0 32 1.0 33 1.5
 28 29 1.0 34 1.5
 29 30 1.0 35 1.5
 30 31 1.0 44 1.5
 31 32 1.5 36 1.5
 32 37 1.5
 33 38 1.5 54 1.0
 34 57 1.0
 35 57 1.0
 36 49 1.5
 37 50 1.5
 38 39 2.0 46 1.0
 39 40 1.5 45 1.0
 40 54 1.0
 41 42 1.5 53 1.0 72 1.5
 42 43 2.0 48 1.0
 43 44 1.5 47 1.0
 44 53 1.0
 45
 46
 47
 48
 49 50 1.5 51 1.0
 50 52 1.0
 51
 52
 53
 54
 55
 56
 57
 58
 59 60 1.0 64 1.0 65 1.5
 60 61 1.0 66 1.5
 61 62 1.0 67 1.5
 62 63 1.0 76 1.5
 63 64 1.5 68 1.5
 64 69 1.5
 65 70 1.5 86 1.0
 66 87 1.0
 67 87 1.0
 68 81 1.5
 69 82 1.5
 70 71 2.0 78 1.0
 71 72 1.5 77 1.0
 72 86 1.0
 73 74 1.5 85 1.0 101 1.5
 74 75 2.0 80 1.0
 75 76 1.5 79 1.0
 76 85 1.0
 77
 78
 79
 80
 81 82 1.5 83 1.0
 82 84 1.0
 83
 84
 85
 86
 87
 88 89 1.0 93 1.0 94 1.5
 89 90 1.0 95 1.5
 90 91 1.0 96 1.5
 91 92 1.5 105 1.5
 92 93 1.0 97 1.5
 93 98 1.5
 94 99 1.5 115 1.0
 95 116 1.0
 96 116 1.0
 97 110 1.5
 98 111 1.5
 99 100 2.0 107 1.0
 100 101 1.5 106 1.0
 101 115 1.0
 102 103 1.5 114 1.0 160 1.5
 103 104 1.5 109 1.0
 104 105 1.5 108 1.0
 105 114 1.0
 106
 107
 108
 109
 110 111 1.5 112 1.0
 111 113 1.0
 112
 113
 114
 115
 116
 117 118 1.5 122 1.5 123 1.5
 118 119 1.0 124 1.5
 119 120 1.5 125 1.5
 120 121 1.5 134 1.5
 121 122 1.0 126 1.5
 122 127 1.0
 123 128 1.5 144 1.0
 124 145 1.0
 125 145 1.0
 126 139 1.5
 127 140 1.5
 128 129 1.5 136 1.0
 129 130 2.0 135 1.0
 130 144 1.0 146 1.0
 131 132 1.5 143 1.0
 132 133 1.5 138 1.0
 133 134 1.5 137 1.0
 134 143 1.0
 135
 136
 137
 138
 139 140 1.5 141 1.0
 140 142 1.0
 141
 142
 143
 144
 145
 146
 147 148 1.5 152 1.5 153 1.5
 148 149 1.0 154 1.5
 149 150 1.5 155 1.5
 150 151 1.5 164 1.5
 151 152 1.0 156 1.0
 152 157 1.5
 153 158 1.5 174 1.0
 154 175 1.0
 155 175 1.0
 156 169 1.5
 157 170 1.5
 158 159 1.5 166 1.0
 159 160 1.5 165 1.0
 160 174 1.0
 161 162 2.0 173 1.0 176 1.0
 162 163 1.5 168 1.0
 163 164 1.5 167 1.0
 164 173 1.0
 165
 166
 167
 168
 169 170 1.5 171 1.0
 170 172 1.0
 171
 172
 173
 174
 175
 176

