%mem=500MW
%chk=C-SOS6-UV.chk
# td=(nstates=10) b3lyp/lanl2dz geom=connectivity

C-SOS6-UV

0 1
 C                 19.97296300    0.83662500   -0.00002200
 C                 19.17518300    2.04147200   -0.00000800
 C                 17.71326600    2.03262200    0.00001000
 C                 16.93062700    0.81753200    0.00001600
 C                 17.72947500   -0.37132900    0.00001000
 C                 19.18954300   -0.36200500   -0.00000800
 C                 21.40753100    0.87422600   -0.00004800
 N                 19.60932900    3.31917900   -0.00003200
 N                 17.26339500    3.30451500   -0.00000300
 N                 17.06509000   -1.58356800    0.00001900
 N                 19.86908400   -1.56630400   -0.00001600
 C                 22.21416200    2.03222900   -0.00006200
 C                 23.60200700    1.79545500   -0.00007800
 C                 23.95780300    0.43886800   -0.00007800
 C                 12.95163100    0.36843700    0.00005100
 C                 13.29177100    1.73129700    0.00004600
 C                 14.67461300    1.98489300    0.00003300
 C                 15.49698600    0.83598000    0.00002700
 H                 24.33521700    2.59512700   -0.00008500
 H                 21.78370000    3.02436100   -0.00005600
 H                 15.09323000    2.98209400    0.00003000
 H                 12.54836100    2.52152200    0.00005400
 C                 17.75745200   -2.71671700    0.00001200
 C                 19.19077800   -2.70770000   -0.00000600
 H                 17.20170400   -3.64970300    0.00002000
 H                 19.75798000   -3.63379500   -0.00001200
 C                  7.67707900   -0.66378300    0.00009600
 C                  6.89442100   -1.87918300    0.00010200
 C                  5.43255200   -1.88830000    0.00010700
 C                  4.63480900   -0.68262900    0.00010600
 C                  5.41892300    0.51754900    0.00010300
 C                  6.87819000    0.52648100    0.00009800
 C                  9.10966800   -0.68191100    0.00008800
 N                  7.34452400   -3.15082600    0.00009300
 N                  4.99835800   -3.16538500    0.00010100
 N                  4.73956500    1.72052000    0.00010100
 N                  7.54262900    1.73784900    0.00009200
 C                  9.93275500   -1.83107300    0.00008500
 C                 11.31513700   -1.57717100    0.00007300
 C                 11.65516100   -0.21401200    0.00006600
 C                  0.65152200   -0.28264100    0.00010500
 C                  1.00910500   -1.64185500    0.00010900
 C                  2.39409600   -1.87813500    0.00010900
 C                  3.20287400   -0.71837300    0.00010600
 H                 12.05877200   -2.36719100    0.00006700
 H                  9.51408800   -2.82826100    0.00009000
 H                  2.82554700   -2.86986100    0.00011200
 H                  0.27544100   -2.44115000    0.00011100
 C                  5.41803400    2.86306600    0.00009700
 C                  6.85011700    2.87185800    0.00009200
 H                  4.85029200    3.78875800    0.00009600
 H                  7.40644400    3.80446000    0.00008800
 C                 -4.63480900    0.68263000    0.00009900
 C                 -5.43255200    1.88830200    0.00009300
 C                 -6.89442100    1.87918400    0.00008200
 C                 -7.67707900    0.66378400    0.00007700
 C                 -6.87819000   -0.52648000    0.00009200
 C                 -5.41892300   -0.51754700    0.00010300
 C                 -3.20287400    0.71837400    0.00010100
 N                 -4.99835800    3.16538600    0.00006900
 N                 -7.34452400    3.15082700    0.00005200
 N                 -7.54262900   -1.73784800    0.00009000
 N                 -4.73956500   -1.72051800    0.00011000
 C                 -2.39409600    1.87813600    0.00009800
 C                 -1.00910500    1.64185700    0.00010000
 C                 -0.65152200    0.28264200    0.00010400
 C                -11.65516100    0.21401300    0.00002000
 C                -11.31513700    1.57717200    0.00002200
 C                 -9.93275500    1.83107400    0.00004300
 C                 -9.10966800    0.68191200    0.00005800
 H                 -0.27544100    2.44115100    0.00009800
 H                 -2.82554700    2.86986300    0.00009500
 H                 -9.51408800    2.82826200    0.00004600
 H                -12.05877200    2.36719200    0.00000600
 C                 -6.85011700   -2.87185700    0.00009900
 C                 -5.41803300   -2.86306400    0.00010900
 H                 -7.40644400   -3.80445900    0.00009800
 H                 -4.85029200   -3.78875600    0.00011600
 C                -16.93062700   -0.81753100   -0.00004500
 C                -17.71326600   -2.03262200   -0.00004400
 C                -19.17518300   -2.04147200   -0.00006100
 C                -19.97296300   -0.83662500   -0.00008100
 C                -19.18954300    0.36200500   -0.00007600
 C                -17.72947500    0.37132900   -0.00005900
 C                -15.49698600   -0.83597900   -0.00003200
 N                -17.26339400   -3.30451400   -0.00004100
 N                -19.60932900   -3.31917800   -0.00006800
 N                -19.86908400    1.56630500   -0.00008900
 N                -17.06509100    1.58356800   -0.00005600
 C                -14.67461300   -1.98489200   -0.00001800
 C                -13.29177100   -1.73129600    0.00000000
 C                -12.95163100   -0.36843600    0.00000000
 C                -23.95780300   -0.43886800   -0.00012100
 C                -23.60200700   -1.79545500   -0.00011500
 C                -22.21416100   -2.03222900   -0.00010600
 C                -21.40753100   -0.87422600   -0.00010200
 H                -12.54836100   -2.52152100    0.00001500
 H                -15.09323000   -2.98209300   -0.00001700
 H                -21.78370000   -3.02436100   -0.00009500
 H                -24.33521700   -2.59512700   -0.00011300
 C                -19.19077800    2.70770000   -0.00008600
 C                -17.75745200    2.71671700   -0.00006900
 H                -19.75798100    3.63379500   -0.00009600
 H                -17.20170500    3.64970300   -0.00006700
 C                 32.29574800   -0.50360300   -0.00004900
 C                 31.51318900   -1.71500300   -0.00005800
 C                 30.05125000   -1.72671000   -0.00007100
 C                 29.25289700   -0.52372200   -0.00007600
 C                 30.03557100    0.66969900   -0.00007000
 C                 31.49961300    0.67843100   -0.00005700
 C                 33.74421300   -0.53250900   -0.00003300
 N                 31.96395200   -2.98991400   -0.00004500
 N                 29.61857700   -3.00541500   -0.00006600
 N                 29.35451000    1.87626600   -0.00007100
 N                 32.16265700    1.89788000   -0.00004700
 C                 34.55420500   -1.67475100   -0.00002400
 C                 35.95844600   -1.41532300    0.00000000
 C                 36.26227900   -0.06835800    0.00001100
 C                 25.26455800   -0.13010500   -0.00008600
 C                 25.62117300   -1.48555000   -0.00009200
 C                 27.01082000   -1.72056500   -0.00009100
 C                 27.81438300   -0.56317500   -0.00008500
 H                 36.70618700   -2.20050500    0.00001300
 H                 34.14053900   -2.67409600   -0.00003000
 H                 27.44166500   -2.71254800   -0.00009200
 H                 24.88916200   -2.28630000   -0.00009200
 C                 30.03052500    3.01537000   -0.00006300
 C                 31.46896700    3.02497000   -0.00005100
 H                 29.46413700    3.94215600   -0.00006500
 H                 32.02146000    3.96034200   -0.00004400
 H                 37.23877800    0.39689900    0.00003200
 C                -29.25289800    0.52372100   -0.00008600
 C                -30.05125100    1.72670900   -0.00008200
 C                -31.51318900    1.71500200   -0.00005500
 C                -32.29574800    0.50360100   -0.00002900
 C                -31.49961300   -0.67843300   -0.00004000
 C                -30.03557100   -0.66970000   -0.00006700
 C                -27.81438300    0.56317400   -0.00010500
 N                -29.61857800    3.00541400   -0.00007900
 N                -31.96395300    2.98991200   -0.00003400
 N                -32.16265600   -1.89788200   -0.00001600
 N                -29.35450900   -1.87626700   -0.00006700
 C                -27.01082100    1.72056400   -0.00012400
 C                -25.62117300    1.48555000   -0.00013300
 C                -25.26455800    0.13010400   -0.00012100
 C                -36.26227900    0.06835500    0.00008200
 C                -35.95844600    1.41532000    0.00006100
 C                -34.55420500    1.67474900    0.00001800
 C                -33.74421400    0.53250700    0.00000600
 H                -24.88916200    2.28630000   -0.00014400
 H                -27.44166500    2.71254700   -0.00012700
 H                -34.14053900    2.67409400    0.00000100
 H                -36.70618700    2.20050200    0.00007800
 C                -31.46896600   -3.02497200   -0.00001900
 C                -30.03052400   -3.01537100   -0.00004500
 H                -32.02145900   -3.96034400   -0.00000100
 H                -29.46413600   -3.94215700   -0.00004700
 H                -37.23877800   -0.39690200    0.00011700
 O                -30.79679800    3.79259300   -0.00010600
 O                -18.43146800   -4.11032100   -0.00002700
 O                 -6.17641800    3.95740000    0.00010400
 O                  6.17641800   -3.95739800    0.00011900
 O                 18.43146900    4.11032100    0.00002200
 O                 30.79679700   -3.79259500   -0.00007800
 S                -34.80260700   -0.96439300    0.00003600
 S                -26.75263500   -0.92371200   -0.00011200
 S                -22.46937500    0.61423100   -0.00013500
 S                -14.45517600    0.66598800   -0.00003500
 S                -10.15164400   -0.82038700    0.00005300
 S                 -2.14236200   -0.77072000    0.00010700
 S                  2.14236200    0.77072100    0.00010400
 S                 10.15164400    0.82038800    0.00008100
 S                 14.45517700   -0.66598700    0.00003400
 S                 22.46937500   -0.61423100   -0.00007400
 S                 26.75263500    0.92371100   -0.00009500
 S                 34.80260700    0.96439000   -0.00002500

 1 2 1.5 6 1.5 7 1.5
 2 3 1.0 8 1.5
 3 4 1.5 9 1.5
 4 5 1.5 18 1.5
 5 6 1.0 10 1.0
 6 11 1.0
 7 12 1.5 174 1.0
 8 163 1.0
 9 163 1.0
 10 23 1.5
 11 24 1.5
 12 13 1.5 20 1.0
 13 14 1.5 19 1.0
 14 119 1.5 174 1.0
 15 16 1.5 40 1.5 173 1.0
 16 17 1.5 22 1.0
 17 18 1.5 21 1.0
 18 173 1.0
 19
 20
 21
 22
 23 24 1.5 25 1.0
 24 26 1.0
 25
 26
 27 28 1.5 32 1.5 33 1.5
 28 29 1.0 34 1.5
 29 30 1.5 35 1.5
 30 31 1.5 44 1.5
 31 32 1.0 36 1.5
 32 37 1.5
 33 38 1.5 172 1.0
 34 162 1.0
 35 162 1.0
 36 49 1.5
 37 50 1.5
 38 39 1.5 46 1.0
 39 40 1.5 45 1.0
 40 172 1.0
 41 42 1.5 66 1.5 171 1.0
 42 43 1.5 48 1.0
 43 44 1.5 47 1.0
 44 171 1.0
 45
 46
 47
 48
 49 50 1.5 51 1.0
 50 52 1.0
 51
 52
 53 54 1.5 58 1.5 59 1.5
 54 55 1.0 60 1.5
 55 56 1.5 61 1.5
 56 57 1.5 70 1.5
 57 58 1.0 62 1.5
 58 63 1.5
 59 64 1.5 170 1.0
 60 161 1.0
 61 161 1.0
 62 75 1.5
 63 76 1.5
 64 65 1.5 72 1.0
 65 66 1.5 71 1.0
 66 170 1.0
 67 68 1.5 92 1.5 169 1.0
 68 69 1.5 74 1.0
 69 70 1.5 73 1.0
 70 169 1.0
 71
 72
 73
 74
 75 76 1.5 77 1.0
 76 78 1.0
 77
 78
 79 80 1.5 84 1.5 85 1.5
 80 81 1.0 86 1.5
 81 82 1.5 87 1.5
 82 83 1.5 96 1.5
 83 84 1.0 88 1.0
 84 89 1.0
 85 90 1.5 168 1.0
 86 160 1.0
 87 160 1.0
 88 101 1.5
 89 102 1.5
 90 91 1.5 98 1.0
 91 92 1.5 97 1.0
 92 168 1.0
 93 94 1.5 145 1.5 167 1.0
 94 95 1.5 100 1.0
 95 96 1.5 99 1.0
 96 167 1.0
 97
 98
 99
 100
 101 102 1.5 103 1.0
 102 104 1.0
 103
 104
 105 106 1.5 110 1.5 111 1.0
 106 107 1.0 112 1.5
 107 108 1.5 113 1.5
 108 109 1.5 122 1.5
 109 110 1.0 114 1.0
 110 115 1.0
 111 116 1.5 176 1.0
 112 164 1.0
 113 164 1.0
 114 127 1.5
 115 128 1.5
 116 117 1.5 124 1.0
 117 118 2.0 123 1.0
 118 131 1.0 176 1.0
 119 120 1.5 175 1.0
 120 121 1.5 126 1.0
 121 122 1.5 125 1.0
 122 175 1.0
 123
 124
 125
 126
 127 128 1.5 129 1.0
 128 130 1.0
 129
 130
 131
 132 133 1.5 137 1.5 138 1.5
 133 134 1.0 139 1.5
 134 135 1.5 140 1.5
 135 136 1.5 149 1.0
 136 137 1.0 141 1.0
 137 142 1.0
 138 143 1.5 166 1.0
 139 159 1.0
 140 159 1.0
 141 154 1.5
 142 155 1.5
 143 144 1.5 151 1.0
 144 145 1.5 150 1.0
 145 166 1.0
 146 147 2.0 158 1.0 165 1.0
 147 148 1.5 153 1.0
 148 149 1.5 152 1.0
 149 165 1.0
 150
 151
 152
 153
 154 155 1.5 156 1.0
 155 157 1.0
 156
 157
 158
 159
 160
 161
 162
 163
 164
 165
 166
 167
 168
 169
 170
 171
 172
 173
 174
 175
 176

