%mem=500MW
%chk=C-SSS6-UV.chk
# td=(nstates=10) b3lyp/lanl2dz geom=connectivity

C-SSS6-UV

0 1
 C                 19.93504800   -1.02272600    0.00000900
 C                 19.14831100   -2.24631500    0.00001200
 C                 17.65582300   -2.23203500   -0.00000900
 C                 16.89335900   -0.99236200   -0.00003300
 C                 17.69881700    0.19218600   -0.00003100
 C                 19.15404800    0.17737400   -0.00001200
 C                 21.37263900   -1.03632900    0.00002900
 N                 19.68447500   -3.48335100    0.00003200
 N                 17.09557900   -3.45772200   -0.00000200
 N                 17.04140100    1.40658500   -0.00004900
 N                 19.83545700    1.37925900   -0.00001100
 C                 22.20977100   -2.17407300    0.00005500
 C                 23.59139000   -1.90819200    0.00007600
 C                 23.92014000   -0.54428900    0.00006500
 C                 12.91962600   -0.43309600   -0.00010400
 C                 13.22297300   -1.80584600   -0.00009000
 C                 14.59648900   -2.09822300   -0.00006300
 C                 15.45782600   -0.97584500   -0.00005700
 H                 24.34114800   -2.69252300    0.00010000
 H                 21.78944800   -3.16933300    0.00006300
 H                 14.99801100   -3.10124800   -0.00004800
 H                 12.45750600   -2.57488100   -0.00009600
 C                 17.73401900    2.54014700   -0.00004700
 C                 19.16511600    2.52581800   -0.00002800
 H                 17.17860600    3.47339400   -0.00006200
 H                 19.73868600    3.44807000   -0.00002700
 C                  7.66905300    0.74365800   -0.00016400
 C                  6.90705100    1.98387300   -0.00017200
 C                  5.41465200    1.99898000   -0.00017900
 C                  4.62756100    0.77427800   -0.00017900
 C                  5.40923200   -0.42815100   -0.00016800
 C                  6.86339900   -0.44259000   -0.00016000
 C                  9.10332100    0.72645300   -0.00015900
 N                  7.46783500    3.20918600   -0.00017300
 N                  4.87884500    3.23521900   -0.00018500
 N                  4.72777600   -1.62801600   -0.00016000
 N                  7.52065900   -1.65605000   -0.00014500
 C                  9.96565300    1.84901700   -0.00016000
 C                 11.33856800    1.55609300   -0.00014400
 C                 11.64161900    0.18297900   -0.00012800
 C                  0.64469900    0.29441600   -0.00019400
 C                  0.97624000    1.66172800   -0.00020000
 C                  2.35415500    1.92631100   -0.00019700
 C                  3.19378200    0.78588500   -0.00018900
 H                 12.10438800    2.32478900   -0.00013800
 H                  9.56410100    2.85204200   -0.00016800
 H                  2.77645600    2.92080600   -0.00019700
 H                  0.22617500    2.44580500   -0.00020200
 C                  5.39804600   -2.77630700   -0.00014600
 C                  6.82750200   -2.79054300   -0.00013900
 H                  4.82358600   -3.69789600   -0.00014000
 H                  7.38346800   -3.72341700   -0.00012700
 C                 -4.62756100   -0.77427100   -0.00016900
 C                 -5.41465200   -1.99897300   -0.00016300
 C                 -6.90705000   -1.98386600   -0.00015400
 C                 -7.66905300   -0.74365100   -0.00014900
 C                 -6.86339900    0.44259600   -0.00015100
 C                 -5.40923200    0.42815800   -0.00016000
 C                 -3.19378200   -0.78587800   -0.00018100
 N                 -4.87884500   -3.23521200   -0.00016600
 N                 -7.46783400   -3.20918000   -0.00015000
 N                 -7.52066000    1.65605700   -0.00013800
 N                 -4.72777600    1.62802300   -0.00015700
 C                 -2.35415500   -1.92630300   -0.00018600
 C                 -0.97624000   -1.66172100   -0.00019200
 C                 -0.64469900   -0.29440900   -0.00019200
 C                -11.64161900   -0.18297400   -0.00010700
 C                -11.33856800   -1.55608800   -0.00011900
 C                 -9.96565200   -1.84901100   -0.00013700
 C                 -9.10332100   -0.72644700   -0.00014100
 H                 -0.22617500   -2.44579800   -0.00019300
 H                 -2.77645600   -2.92079900   -0.00018100
 H                 -9.56410000   -2.85203600   -0.00014100
 H                -12.10438700   -2.32478400   -0.00010800
 C                 -6.82750300    2.79054900   -0.00013600
 C                 -5.39804600    2.77631400   -0.00014600
 H                 -7.38346900    3.72342400   -0.00012700
 H                 -4.82358700    3.69790300   -0.00014400
 C                -16.89335900    0.99236400   -0.00001100
 C                -17.65582400    2.23203700    0.00000800
 C                -19.14831300    2.24631600    0.00002800
 C                -19.93504900    1.02272600    0.00003000
 C                -19.15404800   -0.17737300    0.00001400
 C                -17.69881700   -0.19218400   -0.00000500
 C                -15.45782700    0.97584800   -0.00003400
 N                -17.09558100    3.45772500    0.00001100
 N                -19.68447700    3.48335200    0.00004400
 N                -19.83545600   -1.37925800    0.00001800
 N                -17.04140000   -1.40658300   -0.00001900
 C                -14.59649000    2.09822700   -0.00004500
 C                -13.22297400    1.80585000   -0.00007200
 C                -12.91962700    0.43310000   -0.00008200
 C                -23.92014000    0.54428700    0.00008300
 C                -23.59139100    1.90819000    0.00009000
 C                -22.20977200    2.17407200    0.00007100
 C                -21.37263900    1.03632800    0.00004900
 H                -12.45750700    2.57488500   -0.00008200
 H                -14.99801200    3.10125200   -0.00003300
 H                -21.78945000    3.16933200    0.00007500
 H                -24.34115000    2.69252100    0.00011000
 C                -19.16511400   -2.52581700    0.00000400
 C                -17.73401700   -2.54014500   -0.00001500
 H                -19.73868300   -3.44806900    0.00000700
 H                -17.17860300   -3.47339100   -0.00002600
 C                 32.24483800    0.49492900    0.00017600
 C                 31.48266700    1.72952900    0.00015100
 C                 29.99019500    1.74714000    0.00013300
 C                 29.20242000    0.52515900    0.00013800
 C                 29.98331400   -0.66875300    0.00016500
 C                 31.44294000   -0.68185500    0.00018300
 C                 33.69807100    0.48939500    0.00019400
 N                 32.04427400    2.95890400    0.00014200
 N                 29.45512800    2.98499200    0.00011200
 N                 29.30075900   -1.87333600    0.00017600
 N                 32.09948000   -1.90431800    0.00021400
 C                 34.54583900    1.60349500    0.00019100
 C                 35.94250900    1.30343100    0.00024600
 C                 36.20811300   -0.05088900    0.00029300
 C                 25.21380400    0.05013600    0.00008100
 C                 25.54308900    1.41303300    0.00006900
 C                 26.92650700    1.67739100    0.00008900
 C                 27.76072000    0.54044900    0.00011700
 H                 36.71171100    2.06790700    0.00026700
 H                 34.15132800    2.60922600    0.00016900
 H                 27.34676600    2.67267500    0.00008300
 H                 24.79433400    2.19828300    0.00004500
 C                 29.96886100   -3.01708800    0.00020400
 C                 31.40581800   -3.03120500    0.00022400
 H                 29.39671600   -3.94040500    0.00021200
 H                 31.95793100   -3.96694100    0.00024700
 H                 37.17092800   -0.54415500    0.00034700
 C                -29.20242000   -0.52516500    0.00014900
 C                -29.99019300   -1.74714700    0.00014700
 C                -31.48266500   -1.72953700    0.00016300
 C                -32.24483700   -0.49493800    0.00018100
 C                -31.44294100    0.68184600    0.00018500
 C                -29.98331500    0.66874600    0.00017000
 C                -27.76071900   -0.54045400    0.00013100
 N                -29.45512500   -2.98499800    0.00013200
 N                -32.04427100   -2.95891300    0.00015700
 N                -32.09948200    1.90430900    0.00021000
 N                -29.30076100    1.87332900    0.00017800
 C                -26.92650600   -1.67739500    0.00010800
 C                -25.54308800   -1.41303600    0.00009000
 C                -25.21380300   -0.05013900    0.00009800
 C                -36.20811300    0.05087600    0.00028600
 C                -35.94250800   -1.30344400    0.00024600
 C                -34.54583700   -1.60350600    0.00019500
 C                -33.69807100   -0.48940600    0.00019600
 H                -24.79433200   -2.19828600    0.00007200
 H                -27.34676400   -2.67268000    0.00010500
 H                -34.15132500   -2.60923700    0.00017800
 H                -36.71170900   -2.06792000    0.00026700
 C                -31.40582100    3.03119700    0.00021700
 C                -29.96886500    3.01708100    0.00020000
 H                -31.95793500    3.96693200    0.00023500
 H                -29.39672000    3.94039900    0.00020600
 H                -37.17092900    0.54414200    0.00033600
 S                -34.71851900    1.04079600    0.00020000
 S                -26.72526100    0.97181700    0.00013000
 S                -22.40850900   -0.47732100    0.00004800
 S                -14.45369100   -0.55844800   -0.00006000
 S                -10.10744600    0.80838500   -0.00013800
 S                 -2.15896100    0.72820300   -0.00019600
 S                  2.15896100   -0.72819600   -0.00019800
 S                 10.10744600   -0.80838000   -0.00015200
 S                 14.45369100    0.55845100   -0.00009000
 S                 22.40850900    0.47731900    0.00002200
 S                 26.72526000   -0.97182100    0.00012000
 S                 34.71851800   -1.04080700    0.00020500
 S                 30.76228000    4.15902300    0.00011300
 S                 18.37841800   -4.66226700    0.00002800
 S                  6.18531700    4.41520300   -0.00018300
 S                 -6.18531600   -4.41519600   -0.00015700
 S                -18.37842100    4.66226900    0.00003600
 S                -30.76227600   -4.15903100    0.00013400

 1 2 1.0 6 1.5 7 1.5
 2 3 1.0 8 1.5
 3 4 1.0 9 1.5
 4 5 1.5 18 1.5
 5 6 1.0 10 1.5
 6 11 1.5
 7 12 1.5 168 1.0
 8 172 1.0
 9 172 1.0
 10 23 1.5
 11 24 1.5
 12 13 1.5 20 1.0
 13 14 1.5 19 1.0
 14 119 1.5 168 1.0
 15 16 1.5 40 1.5 167 1.0
 16 17 1.5 22 1.0
 17 18 1.5 21 1.0
 18 167 1.0
 19
 20
 21
 22
 23 24 1.5 25 1.0
 24 26 1.0
 25
 26
 27 28 1.0 32 1.5 33 1.5
 28 29 1.0 34 1.5
 29 30 1.0 35 1.5
 30 31 1.5 44 1.5
 31 32 1.0 36 1.5
 32 37 1.5
 33 38 1.5 166 1.0
 34 173 1.0
 35 173 1.0
 36 49 1.5
 37 50 1.5
 38 39 1.5 46 1.0
 39 40 1.5 45 1.0
 40 166 1.0
 41 42 1.5 66 1.5 165 1.0
 42 43 1.5 48 1.0
 43 44 1.5 47 1.0
 44 165 1.0
 45
 46
 47
 48
 49 50 1.5 51 1.0
 50 52 1.0
 51
 52
 53 54 1.0 58 1.5 59 1.5
 54 55 1.0 60 1.5
 55 56 1.0 61 1.5
 56 57 1.5 70 1.5
 57 58 1.0 62 1.5
 58 63 1.5
 59 64 1.5 164 1.0
 60 174 1.0
 61 174 1.0
 62 75 1.5
 63 76 1.5
 64 65 1.5 72 1.0
 65 66 1.5 71 1.0
 66 164 1.0
 67 68 1.5 92 1.5 163 1.0
 68 69 1.5 74 1.0
 69 70 1.5 73 1.0
 70 163 1.0
 71
 72
 73
 74
 75 76 1.5 77 1.0
 76 78 1.0
 77
 78
 79 80 1.0 84 1.5 85 1.5
 80 81 1.0 86 1.5
 81 82 1.0 87 1.5
 82 83 1.5 96 1.5
 83 84 1.0 88 1.5
 84 89 1.5
 85 90 1.5 162 1.0
 86 175 1.0
 87 175 1.0
 88 101 1.5
 89 102 1.5
 90 91 1.5 98 1.0
 91 92 1.5 97 1.0
 92 162 1.0
 93 94 1.5 145 1.5 161 1.0
 94 95 1.5 100 1.0
 95 96 1.5 99 1.0
 96 161 1.0
 97
 98
 99
 100
 101 102 1.5 103 1.0
 102 104 1.0
 103
 104
 105 106 1.0 110 1.5 111 1.0
 106 107 1.0 112 1.5
 107 108 1.0 113 1.5
 108 109 1.5 122 1.5
 109 110 1.0 114 1.0
 110 115 1.0
 111 116 1.5 170 1.0
 112 171 1.0
 113 171 1.0
 114 127 1.5
 115 128 1.5
 116 117 1.5 124 1.0
 117 118 2.0 123 1.0
 118 131 1.0 170 1.0
 119 120 1.5 169 1.0
 120 121 1.5 126 1.0
 121 122 1.5 125 1.0
 122 169 1.0
 123
 124
 125
 126
 127 128 1.5 129 1.0
 128 130 1.0
 129
 130
 131
 132 133 1.0 137 1.5 138 1.5
 133 134 1.0 139 1.5
 134 135 1.0 140 1.5
 135 136 1.5 149 1.0
 136 137 1.0 141 1.0
 137 142 1.0
 138 143 1.5 160 1.0
 139 176 1.0
 140 176 1.0
 141 154 1.5
 142 155 1.5
 143 144 1.5 151 1.0
 144 145 1.5 150 1.0
 145 160 1.0
 146 147 2.0 158 1.0 159 1.0
 147 148 1.5 153 1.0
 148 149 1.5 152 1.0
 149 159 1.0
 150
 151
 152
 153
 154 155 1.5 156 1.0
 155 157 1.0
 156
 157
 158
 159
 160
 161
 162
 163
 164
 165
 166
 167
 168
 169
 170
 171
 172
 173
 174
 175
 176

