%mem=500MW
%chk=C-SSeS6-UV.chk
# td=(nstates=10) b3lyp/lanl2dz geom=connectivity

C-SSeS6-UV

0 1
 C                -19.91636000   -1.17153200   -0.00002100
 C                -19.12808800   -2.39896800   -0.00003600
 C                -17.62600800   -2.37686600   -0.00005100
 C                -16.87516200   -1.12516100   -0.00005000
 C                -17.68722700    0.05491600   -0.00003500
 C                -19.14145000    0.03243500   -0.00002100
 C                -21.35473800   -1.18283500   -0.00000500
 N                -19.68487700   -3.62501800   -0.00003800
 N                -17.03270900   -3.58495300   -0.00006400
 N                -17.03726600    1.27279000   -0.00003300
 N                -19.82807000    1.23095100   -0.00000600
 C                -22.19814100   -2.31667500   -0.00000300
 C                -23.57856500   -2.04659300    0.00001600
 C                -23.90360900   -0.68161200    0.00002900
 C                -12.90596300   -0.51215400   -0.00008000
 C                -13.19122900   -1.88930100   -0.00008800
 C                -14.55997100   -2.20022400   -0.00007900
 C                -15.43951000   -1.09094800   -0.00006300
 H                -24.33076800   -2.82866400    0.00002000
 H                -21.77928700   -3.31218200   -0.00001400
 H                -14.94950900   -3.20760500   -0.00008300
 H                -12.41529100   -2.64786000   -0.00009900
 C                -17.73460500    2.40366200   -0.00001900
 C                -19.16488200    2.38183100   -0.00000500
 H                -17.18305400    3.33923300   -0.00001800
 H                -19.74421200    3.30052500    0.00000700
 C                 -7.66952900    0.73636100   -0.00009800
 C                 -6.91987700    1.98901000   -0.00009100
 C                 -5.41792100    2.01283800   -0.00009500
 C                 -4.62856600    0.78449400   -0.00010800
 C                 -5.40364800   -0.42251200   -0.00011500
 C                 -6.85666900   -0.44523400   -0.00011100
 C                 -9.10377400    0.70075400   -0.00009300
 N                 -7.51434400    3.19640700   -0.00007800
 N                 -4.86220600    3.23828000   -0.00008600
 N                 -4.71637300   -1.61838900   -0.00012700
 N                 -7.50589300   -1.66238600   -0.00011800
 C                 -9.98475800    1.80992800   -0.00007900
 C                -11.35270600    1.49797900   -0.00007400
 C                -11.63724000    0.12035500   -0.00008300
 C                 -0.64360000    0.29535900   -0.00011900
 C                 -0.97260800    1.66394200   -0.00010700
 C                 -2.34904100    1.93170000   -0.00010300
 C                 -3.19456300    0.79433400   -0.00011100
 H                -12.12926100    2.25591700   -0.00006400
 H                 -9.59550100    2.81742800   -0.00007300
 H                 -2.77075800    2.92608500   -0.00009400
 H                 -0.22056100    2.44619900   -0.00010100
 C                 -5.37891600   -2.77154400   -0.00013400
 C                 -6.80734800   -2.79393200   -0.00013000
 H                 -4.79816000   -3.68921200   -0.00014300
 H                 -7.35905000   -3.72936900   -0.00013500
 C                  4.62856400   -0.78436100   -0.00012100
 C                  5.41791400   -2.01270700   -0.00012900
 C                  6.91986900   -1.98888600   -0.00012400
 C                  7.66952600   -0.73624000   -0.00011100
 C                  6.85667200    0.44535800   -0.00010300
 C                  5.40365100    0.42264300   -0.00010800
 C                  3.19456000   -0.79419700   -0.00012500
 N                  4.86219200   -3.23814700   -0.00014100
 N                  7.51433100   -3.19628600   -0.00013200
 N                  7.50590100    1.66250700   -0.00009000
 N                  4.71638100    1.61852300   -0.00009900
 C                  2.34903800   -1.93156200   -0.00013700
 C                  0.97260400   -1.66380400   -0.00013600
 C                  0.64359800   -0.29522100   -0.00012400
 C                 11.63724300   -0.12026300   -0.00008800
 C                 11.35269700   -1.49788500   -0.00010200
 C                  9.98474700   -1.80982400   -0.00011200
 C                  9.10377100   -0.70064200   -0.00010500
 H                  0.22055800   -2.44606100   -0.00014400
 H                  2.77075400   -2.92594800   -0.00014500
 H                  9.59548200   -2.81732100   -0.00012300
 H                 12.12924600   -2.25583000   -0.00010600
 C                  6.80736100    2.79405600   -0.00008200
 C                  5.37892900    2.77167500   -0.00008700
 H                  7.35906800    3.72949100   -0.00007200
 H                  4.79817800    3.68934500   -0.00008000
 C                 16.87517400    1.12520500   -0.00003500
 C                 17.62603600    2.37690100   -0.00001500
 C                 19.12811600    2.39898500   -0.00000100
 C                 19.91637300    1.17154000   -0.00000600
 C                 19.14144800   -0.03241800   -0.00002600
 C                 17.68722500   -0.05488100   -0.00004000
 C                 15.43952200    1.09100700   -0.00004900
 N                 17.03275200    3.58499600   -0.00000800
 N                 19.68492000    3.62502800    0.00001800
 N                 19.82805400   -1.23094200   -0.00003000
 N                 17.03724900   -1.27274700   -0.00005700
 C                 14.55999300    2.20029100   -0.00004600
 C                 13.19124900    1.88937900   -0.00005900
 C                 12.90597100    0.51223500   -0.00007400
 C                 23.90361600    0.68156600    0.00003200
 C                 23.57859000    2.04655200    0.00004200
 C                 22.19816900    2.31665300    0.00002800
 C                 21.35475100    1.18282400    0.00000800
 H                 12.41531700    2.64794500   -0.00005700
 H                 14.94954000    3.20766800   -0.00003200
 H                 21.77932900    3.31216500    0.00003500
 H                 24.33080300    2.82861200    0.00005900
 C                 19.16485100   -2.38181400   -0.00004800
 C                 17.73457500   -2.40362700   -0.00006100
 H                 19.74417000   -3.30051600   -0.00005100
 H                 17.18301200   -3.33919200   -0.00007600
 C                -32.22747400    0.36035200    0.00017300
 C                -31.47642600    1.60608500    0.00016700
 C                -29.97441400    1.63093600    0.00014000
 C                -29.18562300    0.40448600    0.00011900
 C                -29.96125800   -0.79241100    0.00012500
 C                -31.42017700   -0.81194600    0.00015100
 C                -33.68222700    0.33833200    0.00019900
 N                -32.07073200    2.81830900    0.00018500
 N                -29.41792000    2.85738200    0.00013800
 N                -29.27428900   -1.99422000    0.00010700
 N                -32.07014200   -2.03794400    0.00015700
 C                -34.54666800    1.43944000    0.00022100
 C                -35.93952700    1.12109800    0.00025400
 C                -36.18758100   -0.23625600    0.00025900
 C                -25.19496900   -0.08371000    0.00005100
 C                -25.52001700    1.28039500    0.00006400
 C                -26.90214000    1.54947500    0.00008700
 C                -27.74301300    0.41682600    0.00009400
 H                -36.71841400    1.87585000    0.00027800
 H                -34.16406800    2.44935400    0.00021900
 H                -27.32044600    2.54520000    0.00010000
 H                -24.76850700    2.06308100    0.00005700
 C                -29.93595300   -3.14165400    0.00011300
 C                -31.37247900   -3.16219000    0.00013900
 H                -29.35884800   -4.06192600    0.00009800
 H                -31.92115100   -4.10002100    0.00014400
 H                -37.14384400   -0.74220400    0.00028400
 C                 29.18561500   -0.40460600    0.00009600
 C                 29.97438500   -1.63106900    0.00009600
 C                 31.47639800   -1.60624300    0.00011900
 C                 32.22746600   -0.36052300    0.00014300
 C                 31.42018900    0.81178900    0.00014300
 C                 29.96126900    0.79227800    0.00012100
 C                 27.74300400   -0.41692500    0.00007400
 N                 29.41787100   -2.85750500    0.00007500
 N                 32.07068300   -2.81847700    0.00011600
 N                 32.07017500    2.03777600    0.00016800
 N                 29.27432100    1.99409900    0.00012400
 C                 26.90211600   -1.54956200    0.00004900
 C                 25.51999600   -1.28046200    0.00003200
 C                 25.19496700    0.08364700    0.00004200
 C                 36.18758300    0.23601900    0.00022500
 C                 35.93950700   -1.12133100    0.00019900
 C                 34.54664200   -1.43964900    0.00016600
 C                 33.68222000   -0.33852600    0.00016500
 H                 24.76847600   -2.06313800    0.00001300
 H                 27.32040800   -2.54529200    0.00004500
 H                 34.16402500   -2.44955700    0.00014900
 H                 36.71838100   -1.87609600    0.00020900
 C                 31.37253000    3.16203400    0.00017000
 C                 29.93600400    3.14152200    0.00014800
 H                 31.92121800    4.09985600    0.00019000
 H                 29.35891400    4.06180400    0.00015000
 H                 37.14385500    0.74195100    0.00025500
 S                 34.68463600    1.20604800    0.00019000
 S                 26.71077200    1.10010500    0.00007300
 S                 22.38803300   -0.33516000    0.00000000
 S                 14.45442300   -0.45811600   -0.00007500
 S                 10.08837500    0.84941400   -0.00008700
 S                  2.16141600    0.72365200   -0.00011400
 S                 -2.16141800   -0.72351400   -0.00012700
 S                -10.08836600   -0.84931000   -0.00010000
 S                -14.45442400    0.45818400   -0.00006200
 S                -22.38804000    0.33513500    0.00001500
 S                -26.71075900   -1.10018900    0.00006600
 S                -34.68461700   -1.20626000    0.00020200
 Se                30.76422200   -4.14108800    0.00008200
 Se                18.33947100    4.91306800    0.00001800
 Se                 6.20883000   -4.52674900   -0.00014800
 Se                -6.20884900    4.52687600   -0.00007200
 Se               -18.33941200   -4.91304100   -0.00006000
 Se               -30.76429300    4.14094200    0.00016900

 1 2 1.0 6 1.5 7 1.5
 2 3 1.0 8 1.5
 3 4 1.0 9 1.5
 4 5 1.5 18 1.5
 5 6 1.0 10 1.5
 6 11 1.5
 7 12 1.5 168 1.0
 8 175 1.0
 9 175 1.0
 10 23 1.5
 11 24 1.5
 12 13 1.5 20 1.0
 13 14 1.5 19 1.0
 14 119 1.5 168 1.0
 15 16 1.5 40 1.5 167 1.0
 16 17 1.5 22 1.0
 17 18 1.5 21 1.0
 18 167 1.0
 19
 20
 21
 22
 23 24 1.5 25 1.0
 24 26 1.0
 25
 26
 27 28 1.0 32 1.5 33 1.5
 28 29 1.0 34 1.5
 29 30 1.0 35 1.5
 30 31 1.5 44 1.5
 31 32 1.0 36 1.5
 32 37 1.5
 33 38 1.5 166 1.0
 34 174 1.0
 35 174 1.0
 36 49 1.5
 37 50 1.5
 38 39 1.5 46 1.0
 39 40 1.5 45 1.0
 40 166 1.0
 41 42 1.5 66 1.5 165 1.0
 42 43 1.5 48 1.0
 43 44 1.5 47 1.0
 44 165 1.0
 45
 46
 47
 48
 49 50 1.5 51 1.0
 50 52 1.0
 51
 52
 53 54 1.0 58 1.5 59 1.5
 54 55 1.0 60 1.5
 55 56 1.0 61 1.5
 56 57 1.5 70 1.5
 57 58 1.0 62 1.5
 58 63 1.5
 59 64 1.5 164 1.0
 60 173 1.0
 61 173 1.0
 62 75 1.5
 63 76 1.5
 64 65 1.5 72 1.0
 65 66 1.5 71 1.0
 66 164 1.0
 67 68 1.5 92 1.5 163 1.0
 68 69 1.5 74 1.0
 69 70 1.5 73 1.0
 70 163 1.0
 71
 72
 73
 74
 75 76 1.5 77 1.0
 76 78 1.0
 77
 78
 79 80 1.0 84 1.5 85 1.5
 80 81 1.0 86 1.5
 81 82 1.0 87 1.5
 82 83 1.5 96 1.5
 83 84 1.0 88 1.5
 84 89 1.5
 85 90 1.5 162 1.0
 86 172 1.0
 87 172 1.0
 88 101 1.5
 89 102 1.5
 90 91 1.5 98 1.0
 91 92 1.5 97 1.0
 92 162 1.0
 93 94 1.5 145 1.5 161 1.0
 94 95 1.5 100 1.0
 95 96 1.5 99 1.0
 96 161 1.0
 97
 98
 99
 100
 101 102 1.5 103 1.0
 102 104 1.0
 103
 104
 105 106 1.0 110 1.5 111 1.0
 106 107 1.0 112 1.5
 107 108 1.0 113 1.5
 108 109 1.5 122 1.5
 109 110 1.0 114 1.0
 110 115 1.0
 111 116 1.5 170 1.0
 112 176 1.0
 113 176 1.0
 114 127 1.5
 115 128 1.5
 116 117 1.5 124 1.0
 117 118 2.0 123 1.0
 118 131 1.0 170 1.0
 119 120 1.5 169 1.0
 120 121 1.5 126 1.0
 121 122 1.5 125 1.0
 122 169 1.0
 123
 124
 125
 126
 127 128 1.5 129 1.0
 128 130 1.0
 129
 130
 131
 132 133 1.0 137 1.5 138 1.5
 133 134 1.0 139 1.5
 134 135 1.0 140 1.5
 135 136 1.5 149 1.0
 136 137 1.0 141 1.0
 137 142 1.0
 138 143 1.5 160 1.0
 139 171 1.0
 140 171 1.0
 141 154 1.5
 142 155 1.5
 143 144 1.5 151 1.0
 144 145 1.5 150 1.0
 145 160 1.0
 146 147 2.0 158 1.0 159 1.0
 147 148 1.5 153 1.0
 148 149 1.5 152 1.0
 149 159 1.0
 150
 151
 152
 153
 154 155 1.5 156 1.0
 155 157 1.0
 156
 157
 158
 159
 160
 161
 162
 163
 164
 165
 166
 167
 168
 169
 170
 171
 172
 173
 174
 175
 176

