%mem=500MW
%chk=C-STeS6-UV.chk
# td=(nstates=10) b3lyp/lanl2dz geom=connectivity

C-STeS6-UV

0 1
 C                 19.88633800   -1.31803800   -0.00002800
 C                 19.09938600   -2.55378100   -0.00006000
 C                 17.58249300   -2.52439800   -0.00013300
 C                 16.84532000   -1.25666400   -0.00017400
 C                 17.66442200   -0.07913600   -0.00014100
 C                 19.11656700   -0.10893900   -0.00007100
 C                 21.32336700   -1.32354000    0.00004800
 N                 19.68119700   -3.76439800   -0.00002200
 N                 16.95329400   -3.71003000   -0.00015300
 N                 17.02174900    1.14049500   -0.00016700
 N                 19.80771000    1.08525600   -0.00003400
 C                 22.17556600   -2.45371300    0.00010500
 C                 23.55293500   -2.17864300    0.00018100
 C                 23.87414000   -0.81096100    0.00018800
 C                 12.88309900   -0.58691900   -0.00034000
 C                 13.15173100   -1.97058200   -0.00032700
 C                 14.51293600   -2.29928300   -0.00027200
 C                 15.41282400   -1.20192200   -0.00023900
 H                 24.30859000   -2.95750200    0.00022900
 H                 21.75429900   -3.44801600    0.00009000
 H                 14.89556300   -3.30915700   -0.00024900
 H                 12.36497500   -2.71806300   -0.00035100
 C                 17.72350000    2.27045500   -0.00013200
 C                 19.15119700    2.24155800   -0.00006400
 H                 17.17461100    3.20757300   -0.00015700
 H                 19.73680200    3.15628100   -0.00003500
 C                  7.66634600    0.73375100   -0.00048800
 C                  6.93142900    2.00306600   -0.00050400
 C                  5.41478600    2.03561000   -0.00053000
 C                  4.62561500    0.79874400   -0.00054000
 C                  5.39526000   -0.41516300   -0.00052400
 C                  6.84562500   -0.44576000   -0.00049800
 C                  9.09675200    0.67649000   -0.00045700
 N                  7.56256900    3.18750000   -0.00049300
 N                  4.83521400    3.24565400   -0.00054000
 N                  4.70271400   -1.60520900   -0.00052500
 N                  7.48685200   -1.66455800   -0.00047700
 C                  9.99901500    1.77344800   -0.00043800
 C                 11.35894800    1.44295100   -0.00039900
 C                 11.62619400    0.05852800   -0.00038300
 C                  0.64095100    0.29481300   -0.00057700
 C                  0.96861800    1.66758600   -0.00057900
 C                  2.34035600    1.93856300   -0.00057100
 C                  3.19512400    0.80270600   -0.00056000
 H                 12.14677600    2.18931200   -0.00037800
 H                  9.61702300    2.78358400   -0.00045000
 H                  2.76641000    2.93098000   -0.00056700
 H                  0.21359400    2.44710900   -0.00058300
 C                  5.35787900   -2.76507900   -0.00050600
 C                  6.78289400   -2.79523000   -0.00048100
 H                  4.76990200   -3.67808600   -0.00050900
 H                  7.33166500   -3.73235300   -0.00046400
 C                 -4.62560500   -0.79816700   -0.00054700
 C                 -5.41475200   -2.03504700   -0.00053500
 C                 -6.93139400   -2.00253300   -0.00050900
 C                 -7.66633700   -0.73323300   -0.00049500
 C                 -6.84563900    0.44629500   -0.00050800
 C                 -5.39527200    0.41572600   -0.00053300
 C                 -3.19511400   -0.80211600   -0.00056400
 N                 -4.83515500   -3.24507900   -0.00054000
 N                 -7.56251300   -3.18697800   -0.00049300
 N                 -7.48688900    1.66508100   -0.00048600
 N                 -4.70275000    1.60578600   -0.00053400
 C                 -2.34034400   -1.93797100   -0.00057000
 C                 -0.96860600   -1.66699200   -0.00057700
 C                 -0.64094200   -0.29421800   -0.00057700
 C                -11.62620800   -0.05813500   -0.00038600
 C                -11.35891500   -1.44254900   -0.00039800
 C                 -9.99897000   -1.77300000   -0.00043800
 C                 -9.09674400   -0.67601200   -0.00046200
 H                 -0.21358000   -2.44651400   -0.00057700
 H                 -2.76639600   -2.93038900   -0.00056400
 H                 -9.61694400   -2.78312300   -0.00044800
 H                -12.14671700   -2.18893700   -0.00037400
 C                 -6.78295200    2.79576700   -0.00049000
 C                 -5.35793800    2.76564300   -0.00051400
 H                 -7.33174200    3.73287900   -0.00047400
 H                 -4.76997800    3.67866200   -0.00051700
 C                -16.84538200    1.25685800   -0.00017200
 C                -17.58262000    2.52455400   -0.00013200
 C                -19.09951500    2.55385700   -0.00005800
 C                -19.88640200    1.31807200   -0.00002200
 C                -19.11656800    0.10901400   -0.00006300
 C                -17.66442200    0.07928800   -0.00013400
 C                -15.41288300    1.20217700   -0.00023900
 N                -16.95348500    3.71022000   -0.00015700
 N                -19.68139000    3.76444400   -0.00002300
 N                -19.80764900   -1.08521700   -0.00002300
 N                -17.02168300   -1.14030900   -0.00015900
 C                -14.51303500    2.29957200   -0.00027600
 C                -13.15181800    1.97092100   -0.00033200
 C                -12.88313500    0.58726700   -0.00034200
 C                -23.87417500    0.81076800    0.00019900
 C                -23.55304900    2.17846900    0.00018700
 C                -22.17569700    2.45361800    0.00010900
 C                -21.32343100    1.32349500    0.00005500
 H                -12.36508900    2.71843100   -0.00036000
 H                -14.89569900    3.30943200   -0.00025500
 H                -21.75448700    3.44794500    0.00009100
 H                -24.30875000    2.95728400    0.00023400
 C                -19.15107400   -2.24148500   -0.00005200
 C                -17.72337500   -2.27030600   -0.00012100
 H                -19.73663000   -3.15623900   -0.00002000
 H                -17.17443700   -3.20739500   -0.00014500
 C                 32.19496400    0.23866700    0.00067500
 C                 31.45742400    1.49881200    0.00062000
 C                 29.94056800    1.53089700    0.00053100
 C                 29.15323800    0.29567000    0.00049300
 C                 29.92447600   -0.90418300    0.00054800
 C                 31.38241400   -0.92944400    0.00063500
 C                 33.65070900    0.19840900    0.00076700
 N                 32.08790200    2.68931000    0.00064900
 N                 29.35828200    2.74148400    0.00048700
 N                 29.23375300   -2.10297300    0.00051400
 N                 32.02592500   -2.15864900    0.00067700
 C                 34.53238300    1.28589400    0.00081700
 C                 35.92093800    0.94896600    0.00087500
 C                 36.15115500   -0.41138800    0.00087000
 C                 25.16144500   -0.21056500    0.00025600
 C                 25.48223600    1.15612200    0.00026300
 C                 26.86157000    1.43045400    0.00034300
 C                 27.71104200    0.30204900    0.00040500
 H                 36.70968200    1.69362200    0.00089900
 H                 34.15809200    2.29863300    0.00079000
 H                 27.28166000    2.42520400    0.00036100
 H                 24.72715800    1.93547700    0.00021300
 C                 29.88917400   -3.25452100    0.00055800
 C                 31.32462800   -3.28090300    0.00064100
 H                 29.30702500   -4.17165000    0.00052900
 H                 31.87050300   -4.22045700    0.00067800
 H                 37.10065500   -0.93006200    0.00089700
 C                -29.15320800   -0.29618500    0.00051400
 C                -29.94044500   -1.53147000    0.00055600
 C                -31.45730400   -1.49949900    0.00064600
 C                -32.19493700   -0.23940900    0.00069700
 C                -31.38247500    0.92876300    0.00065300
 C                -29.92453500    0.90361100    0.00056500
 C                -27.71101200   -0.30247000    0.00042400
 N                -29.35806800   -2.74201200    0.00051500
 N                -32.08769200   -2.69004400    0.00067800
 N                -32.02607800    2.15791900    0.00068900
 N                -29.23390200    2.10245400    0.00052500
 C                -26.86147200   -1.43082300    0.00036300
 C                -25.48215500   -1.15640900    0.00028100
 C                -25.16144500    0.21029600    0.00027000
 C                -36.15117900    0.41034100    0.00089000
 C                -35.92085600   -0.94999500    0.00089700
 C                -34.53227600   -1.28681500    0.00084000
 C                -33.65068500   -0.19926200    0.00078800
 H                -24.72703000   -1.93572000    0.00023200
 H                -27.28150300   -2.42559800    0.00038500
 H                -34.15790500   -2.29952500    0.00081600
 H                -36.70954200   -1.69471200    0.00092400
 C                -31.32486600    3.28022600    0.00064800
 C                -29.88941000    3.25395200    0.00056400
 H                -31.87081200    4.21973900    0.00068000
 H                -29.30733000    4.17112500    0.00053100
 H                -37.10071900    0.92894200    0.00091700
 S                -34.63479500    1.36017100    0.00088600
 S                -26.68339300    1.22057000    0.00036000
 S                -22.35286300   -0.20037300    0.00010900
 S                -14.44755700   -0.36235600   -0.00029300
 S                -10.06099700    0.89014700   -0.00043600
 S                 -2.16492300    0.72105900   -0.00057900
 S                  2.16493100   -0.72046600   -0.00057300
 S                 10.06095200   -0.88970100   -0.00042900
 S                 14.44755600    0.36264800   -0.00029500
 S                 22.35288700    0.20026800    0.00009700
 S                 26.68333200   -1.22092900    0.00034700
 S                 34.63469700   -1.36110000    0.00087400
 Te                30.75225700    4.19008700    0.00056000
 Te                18.28846100   -5.21762700   -0.00007700
 Te                 6.23032000    4.69904900   -0.00051500
 Te                -6.23023300   -4.69850000   -0.00051100
 Te               -18.28873200    5.21774700   -0.00008400
 Te               -30.75193300   -4.19072000    0.00059100

 1 2 1.0 6 1.5 7 1.5
 2 3 1.0 8 1.5
 3 4 1.0 9 1.5
 4 5 1.5 18 1.5
 5 6 1.0 10 1.5
 6 11 1.5
 7 12 1.5 168 1.0
 8 172 1.0
 9 172 1.0
 10 23 1.5
 11 24 1.5
 12 13 1.5 20 1.0
 13 14 1.5 19 1.0
 14 119 1.5 168 1.0
 15 16 1.5 40 1.5 167 1.0
 16 17 1.5 22 1.0
 17 18 1.5 21 1.0
 18 167 1.0
 19
 20
 21
 22
 23 24 1.5 25 1.0
 24 26 1.0
 25
 26
 27 28 1.0 32 1.5 33 1.5
 28 29 1.0 34 1.5
 29 30 1.0 35 1.5
 30 31 1.5 44 1.5
 31 32 1.0 36 1.5
 32 37 1.5
 33 38 1.5 166 1.0
 34 173 1.0
 35 173 1.0
 36 49 1.5
 37 50 1.5
 38 39 1.5 46 1.0
 39 40 1.5 45 1.0
 40 166 1.0
 41 42 1.5 66 1.5 165 1.0
 42 43 1.5 48 1.0
 43 44 1.5 47 1.0
 44 165 1.0
 45
 46
 47
 48
 49 50 1.5 51 1.0
 50 52 1.0
 51
 52
 53 54 1.0 58 1.5 59 1.5
 54 55 1.0 60 1.5
 55 56 1.0 61 1.5
 56 57 1.5 70 1.5
 57 58 1.0 62 1.5
 58 63 1.5
 59 64 1.5 164 1.0
 60 174 1.0
 61 174 1.0
 62 75 1.5
 63 76 1.5
 64 65 1.5 72 1.0
 65 66 1.5 71 1.0
 66 164 1.0
 67 68 1.5 92 1.5 163 1.0
 68 69 1.5 74 1.0
 69 70 1.5 73 1.0
 70 163 1.0
 71
 72
 73
 74
 75 76 1.5 77 1.0
 76 78 1.0
 77
 78
 79 80 1.0 84 1.5 85 1.5
 80 81 1.0 86 1.5
 81 82 1.0 87 1.5
 82 83 1.5 96 1.5
 83 84 1.0 88 1.5
 84 89 1.5
 85 90 1.5 162 1.0
 86 175 1.0
 87 175 1.0
 88 101 1.5
 89 102 1.5
 90 91 1.5 98 1.0
 91 92 1.5 97 1.0
 92 162 1.0
 93 94 1.5 145 1.5 161 1.0
 94 95 1.5 100 1.0
 95 96 1.5 99 1.0
 96 161 1.0
 97
 98
 99
 100
 101 102 1.5 103 1.0
 102 104 1.0
 103
 104
 105 106 1.0 110 1.5 111 1.0
 106 107 1.0 112 1.5
 107 108 1.0 113 1.5
 108 109 1.5 122 1.5
 109 110 1.0 114 1.0
 110 115 1.0
 111 116 1.5 170 1.0
 112 171 1.0
 113 171 1.0
 114 127 1.5
 115 128 1.5
 116 117 1.5 124 1.0
 117 118 2.0 123 1.0
 118 131 1.0 170 1.0
 119 120 1.5 169 1.0
 120 121 1.5 126 1.0
 121 122 1.5 125 1.0
 122 169 1.0
 123
 124
 125
 126
 127 128 1.5 129 1.0
 128 130 1.0
 129
 130
 131
 132 133 1.0 137 1.5 138 1.5
 133 134 1.0 139 1.5
 134 135 1.0 140 1.5
 135 136 1.5 149 1.0
 136 137 1.0 141 1.0
 137 142 1.0
 138 143 1.5 160 1.0
 139 176 1.0
 140 176 1.0
 141 154 1.5
 142 155 1.5
 143 144 1.5 151 1.0
 144 145 1.5 150 1.0
 145 160 1.0
 146 147 2.0 158 1.0 159 1.0
 147 148 1.5 153 1.0
 148 149 1.5 152 1.0
 149 159 1.0
 150
 151
 152
 153
 154 155 1.5 156 1.0
 155 157 1.0
 156
 157
 158
 159
 160
 161
 162
 163
 164
 165
 166
 167
 168
 169
 170
 171
 172
 173
 174
 175
 176

