%mem=1400MW
%chk=C-TeSeTe6-UV.chk
# td=(nstates=10) b3lyp/lanl2dz geom=connectivity scf=(yqc,maxcyc=2048)

C-TeSeTe6-UV

0 1
 C                 20.41742100   -0.97473200   -0.00004100
 C                 19.64682300   -2.22467000   -0.00006600
 C                 18.14703100   -2.21542300   -0.00008000
 C                 17.39282300   -0.95504400   -0.00006700
 C                 18.19314000    0.25414600   -0.00003900
 C                 19.63302700    0.24498100   -0.00002700
 C                 21.81848700   -0.88770300   -0.00002800
 N                 20.22264200   -3.43210700   -0.00007900
 N                 17.55629600   -3.41521500   -0.00010400
 N                 17.53568600    1.44741700   -0.00002400
 N                 20.30567500    1.42989700    0.00000100
 C                 22.74351400   -1.99225600   -0.00003500
 C                 24.10182700   -1.72655400   -0.00001700
 C                 24.55054600   -0.36036700    0.00000600
 C                 13.26791000   -0.28587400   -0.00009400
 C                 13.70132400   -1.66084800   -0.00011500
 C                 15.05353600   -1.94309500   -0.00010700
 C                 15.99430600   -0.84842400   -0.00007900
 H                 24.81945800   -2.54691400   -0.00002100
 H                 22.34737700   -3.00114100   -0.00005100
 H                 15.43803200   -2.95646300   -0.00012000
 H                 12.97265300   -2.47144800   -0.00013600
 C                 18.22781600    2.61348400    0.00000300
 C                 19.62859900    2.60442100    0.00001500
 H                 17.65681300    3.53578800    0.00001500
 H                 20.21128000    3.51939600    0.00003700
 C                  7.82083500    0.79524800   -0.00009400
 C                  7.06645700    2.05610100   -0.00007200
 C                  5.56670500    2.06550800   -0.00007100
 C                  4.79646400    0.81433900   -0.00009200
 C                  5.58109300   -0.40602400   -0.00011200
 C                  7.02065100   -0.41516500   -0.00011100
 C                  9.21842500    0.68835900   -0.00009900
 N                  7.65734700    3.25546700   -0.00005300
 N                  4.99112600    3.27231200   -0.00005000
 N                  4.90848400   -1.59022700   -0.00013000
 N                  7.67826600   -1.60760900   -0.00012300
 C                 10.16000800    1.78300100   -0.00007700
 C                 11.51176700    1.50033800   -0.00007700
 C                 11.94469500    0.12483200   -0.00009800
 C                  0.66404500    0.19684000   -0.00010600
 C                  1.11483200    1.56669900   -0.00008000
 C                  2.47003100    1.83197100   -0.00007400
 C                  3.39750000    0.72530700   -0.00009300
 H                 12.24079600    2.31061800   -0.00005600
 H                  9.77562800    2.79644000   -0.00005600
 H                  2.86731700    2.84038700   -0.00005700
 H                  0.39632400    2.38632500   -0.00006700
 C                  5.58617500   -2.76568900   -0.00014500
 C                  6.98589100   -2.77454000   -0.00014000
 H                  5.00314000   -3.68040700   -0.00015900
 H                  7.55734800   -3.69652400   -0.00015000
 C                 -4.79646300   -0.81428300   -0.00014200
 C                 -5.56670200   -2.06545400   -0.00016900
 C                 -7.06645400   -2.05604800   -0.00017300
 C                 -7.82083400   -0.79519700   -0.00015200
 C                 -7.02065100    0.41521800   -0.00012200
 C                 -5.58109400    0.40607900   -0.00011900
 C                 -3.39749900   -0.72524900   -0.00013600
 N                 -4.99112200   -3.27225700   -0.00019100
 N                 -7.65734300   -3.25541500   -0.00020000
 N                 -7.67826900    1.60766100   -0.00009200
 N                 -4.90848600    1.59028300   -0.00009100
 C                 -2.47002900   -1.83191200   -0.00015500
 C                 -1.11483100   -1.56663900   -0.00014500
 C                 -0.66404400   -0.19678000   -0.00011700
 C                -11.94469600   -0.12479000   -0.00013700
 C                -11.51176400   -1.50029500   -0.00016900
 C                -10.16000400   -1.78295500   -0.00017800
 C                 -9.21842500   -0.68831100   -0.00015600
 H                 -0.39632200   -2.38626500   -0.00016000
 H                 -2.86731400   -2.84032900   -0.00017700
 H                 -9.77562200   -2.79639300   -0.00019500
 H                -12.24079100   -2.31057700   -0.00018000
 C                 -6.98589600    2.77459200   -0.00006400
 C                 -5.58617900    2.76574300   -0.00006500
 H                 -7.55735300    3.69657600   -0.00004200
 H                 -5.00314600    3.68046300   -0.00004300
 C                -17.39282800    0.95506500   -0.00004500
 C                -18.14704100    2.21544000   -0.00001200
 C                -19.64683300    2.22468000    0.00001400
 C                -20.41742600    0.97473800    0.00000800
 C                -19.63302600   -0.24497100   -0.00002000
 C                -18.19313900   -0.25412900   -0.00004500
 C                -15.99431000    0.84845100   -0.00007300
 N                -17.55631200    3.41523500   -0.00000700
 N                -20.22265900    3.43211400    0.00004000
 N                -20.30566800   -1.42989000   -0.00001600
 N                -17.53568000   -1.44739700   -0.00006100
 C                -15.05354500    1.94312600   -0.00006900
 C                -13.70133100    1.66088400   -0.00009200
 C                -13.26791200    0.28591200   -0.00011900
 C                -24.55054700    0.36035000    0.00007200
 C                -24.10183600    1.72654000    0.00008900
 C                -22.74352500    1.99225000    0.00006700
 C                -21.81849200    0.88770200    0.00002900
 H                -12.97266300    2.47148700   -0.00008500
 H                -15.43804500    2.95649200   -0.00004300
 H                -22.34739300    3.00113700    0.00008100
 H                -24.81947300    2.54689700    0.00012100
 C                -19.62858700   -2.60441100   -0.00003600
 C                -18.22780400   -2.61346700   -0.00005800
 H                -20.21126400   -3.51938900   -0.00003200
 H                -17.65679700   -3.53576800   -0.00007300
 C                 33.05332200    0.63807400    0.00018800
 C                 32.29417600    1.88217100    0.00017300
 C                 30.79314700    1.89330100    0.00013800
 C                 30.02498900    0.64713400    0.00011600
 C                 30.81606700   -0.55830300    0.00013700
 C                 32.26230600   -0.56110900    0.00017100
 C                 34.48728700    0.56860500    0.00022200
 N                 32.88312900    3.09363000    0.00018800
 N                 30.21490400    3.10245400    0.00012500
 N                 30.14512700   -1.74977400    0.00013200
 N                 32.92005700   -1.76821000    0.00019500
 C                 35.38559600    1.65010000    0.00024900
 C                 36.78839200    1.37164500    0.00028900
 C                 37.17573600    0.03941400    0.00029900
 C                 25.88400500    0.03621800    0.00002500
 C                 26.33408900    1.39929200    0.00004000
 C                 27.69602200    1.66255400    0.00006600
 C                 28.61581300    0.56031000    0.00007900
 H                 37.51053200    2.18553700    0.00031500
 H                 35.00493100    2.66477500    0.00024400
 H                 28.09192000    2.67146400    0.00008500
 H                 25.61864400    2.22150100    0.00003600
 C                 30.81706300   -2.91627500    0.00015500
 C                 32.23141600   -2.91926100    0.00018600
 H                 30.23927900   -3.83464300    0.00014900
 H                 32.79749100   -3.84560400    0.00020600
 H                 38.21180400   -0.28694900    0.00033000
 C                -30.02498300   -0.64718800    0.00014300
 C                -30.79313300   -1.89336100    0.00013600
 C                -32.29416200   -1.88224100    0.00015800
 C                -33.05331700   -0.63814900    0.00018200
 C                -32.26231000    0.56103900    0.00018700
 C                -30.81607100    0.55824300    0.00016700
 C                -28.61580800   -0.56035500    0.00012800
 N                -30.21488100   -3.10251000    0.00011500
 N                -32.88310700   -3.09370500    0.00015000
 N                -32.92007000    1.76813500    0.00021700
 N                -30.14513800    1.74971900    0.00016700
 C                -27.69601000   -1.66259300    0.00009600
 C                -26.33407800   -1.39932100    0.00007700
 C                -25.88400400   -0.03624400    0.00009200
 C                -37.17573600   -0.03951900    0.00027100
 C                -36.78838200   -1.37174700    0.00024400
 C                -35.38558400   -1.65019300    0.00020800
 C                -34.48728200   -0.56869100    0.00020100
 H                -25.61862800   -2.22152500    0.00004700
 H                -28.09190100   -2.67150500    0.00008000
 H                -35.00491100   -2.66486500    0.00019600
 H                -37.51051700   -2.18564400    0.00025800
 C                -32.23143600    2.91919100    0.00022000
 C                -30.81708300    2.91621500    0.00019200
 H                -32.79751700    3.84553100    0.00024200
 H                -30.23930600    3.83458700    0.00019300
 H                -38.21180600    0.28683700    0.00030300
 Te                35.55088000   -1.26866100    0.00023300
 Te                27.60132600   -1.28453200    0.00002600
 Te                22.83247200    0.96168200    0.00000000
 Te                15.00714700    1.01437600   -0.00005800
 Te                10.20486100   -1.17527100   -0.00014700
 Te                 2.38720900   -1.12538000   -0.00012200
 Te                -2.38720900    1.12543800   -0.00009400
 Te               -10.20486500    1.17531800   -0.00013400
 Te               -15.00714400   -1.01434500   -0.00013500
 Te               -22.83246600   -0.96168800    0.00000600
 Te               -27.60133300    1.28449500    0.00016200
 Te               -35.55088900    1.26856800    0.00021400
 Se               -31.55689100   -4.41626600    0.00011700
 Se               -18.88164300    4.75293900    0.00003400
 Se                -6.33262600   -4.59401500   -0.00022200
 Se                 6.33263200    4.59406900   -0.00003000
 Se                18.88162100   -4.75292600   -0.00011200
 Se                31.55692300    4.41620100    0.00015800

 1 2 1.0 6 1.0 7 1.5
 2 3 1.0 8 1.5
 3 4 1.0 9 1.5
 4 5 1.0 18 1.5
 5 6 1.5 10 1.5
 6 11 1.5
 7 12 1.5 161 1.0
 8 175 1.0
 9 175 1.0
 10 23 1.5
 11 24 1.5
 12 13 2.0 20 1.0
 13 14 1.5 19 1.0
 14 119 1.5 161 1.0
 15 16 1.5 40 2.0 162 1.0
 16 17 2.0 22 1.0
 17 18 1.5 21 1.0
 18 162 1.0
 19
 20
 21
 22
 23 24 1.5 25 1.0
 24 26 1.0
 25
 26
 27 28 1.0 32 1.0 33 1.5
 28 29 1.0 34 1.5
 29 30 1.0 35 1.5
 30 31 1.0 44 1.5
 31 32 1.5 36 1.5
 32 37 1.5
 33 38 1.5 163 1.0
 34 174 1.0
 35 174 1.0
 36 49 1.5
 37 50 1.5
 38 39 2.0 46 1.0
 39 40 1.5 45 1.0
 40 163 1.0
 41 42 1.5 66 2.0 164 1.0
 42 43 2.0 48 1.0
 43 44 1.5 47 1.0
 44 164 1.0
 45
 46
 47
 48
 49 50 1.5 51 1.0
 50 52 1.0
 51
 52
 53 54 1.0 58 1.0 59 1.5
 54 55 1.0 60 1.5
 55 56 1.0 61 1.5
 56 57 1.0 70 1.5
 57 58 1.5 62 1.5
 58 63 1.5
 59 64 1.5 165 1.0
 60 173 1.0
 61 173 1.0
 62 75 1.5
 63 76 1.5
 64 65 2.0 72 1.0
 65 66 1.5 71 1.0
 66 165 1.0
 67 68 1.5 92 2.0 166 1.0
 68 69 2.0 74 1.0
 69 70 1.5 73 1.0
 70 166 1.0
 71
 72
 73
 74
 75 76 1.5 77 1.0
 76 78 1.0
 77
 78
 79 80 1.0 84 1.0 85 1.5
 80 81 1.0 86 1.5
 81 82 1.0 87 1.5
 82 83 1.0 96 1.5
 83 84 1.5 88 1.5
 84 89 1.5
 85 90 1.5 167 1.0
 86 172 1.0
 87 172 1.0
 88 101 1.5
 89 102 1.5
 90 91 2.0 98 1.0
 91 92 1.5 97 1.0
 92 167 1.0
 93 94 1.5 145 1.5 168 1.0
 94 95 2.0 100 1.0
 95 96 1.5 99 1.0
 96 168 1.0
 97
 98
 99
 100
 101 102 1.5 103 1.0
 102 104 1.0
 103
 104
 105 106 1.0 110 1.5 111 1.5
 106 107 1.0 112 1.5
 107 108 1.0 113 1.5
 108 109 1.5 122 1.5
 109 110 1.5 114 1.5
 110 115 1.5
 111 116 1.5 159 1.0
 112 176 1.0
 113 176 1.0
 114 127 1.5
 115 128 1.5
 116 117 1.5 124 1.0
 117 118 1.5 123 1.0
 118 131 1.0 159 1.0
 119 120 1.5 160 1.0
 120 121 1.5 126 1.0
 121 122 1.5 125 1.0
 122 160 1.0
 123
 124
 125
 126
 127 128 1.5 129 1.0
 128 130 1.0
 129
 130
 131
 132 133 1.0 137 1.5 138 1.5
 133 134 1.0 139 1.5
 134 135 1.0 140 1.5
 135 136 1.5 149 1.5
 136 137 1.5 141 1.5
 137 142 1.5
 138 143 1.5 169 1.0
 139 171 1.0
 140 171 1.0
 141 154 1.5
 142 155 1.5
 143 144 1.5 151 1.0
 144 145 1.5 150 1.0
 145 169 1.0
 146 147 1.5 158 1.0 170 1.0
 147 148 1.5 153 1.0
 148 149 1.5 152 1.0
 149 170 1.0
 150
 151
 152
 153
 154 155 1.5 156 1.0
 155 157 1.0
 156
 157
 158
 159
 160
 161
 162
 163
 164
 165
 166
 167
 168
 169
 170
 171
 172
 173
 174
 175
 176

