%mem=1400MW
%chk=C-TeTeTe6-UV.chk
# td=(nstates=10) b3lyp/lanl2dz geom=connectivity scf=(yqc,maxcyc=2048)

C-TeTeTe6-UV

0 1
 C                -20.40454400   -1.09939300    0.00004800
 C                -19.63617100   -2.35693600    0.00010600
 C                -18.12176900   -2.34125700    0.00008800
 C                -17.38058400   -1.06713200    0.00001800
 C                -18.18587900    0.13828500   -0.00003200
 C                -19.62510400    0.12328700   -0.00002100
 C                -21.80611800   -1.00834400    0.00005500
 N                -20.23757400   -3.54896600    0.00017200
 N                -17.49579500   -3.52026900    0.00013800
 N                -17.53462800    1.33495500   -0.00009100
 N                -20.30144900    1.30588000   -0.00007600
 C                -22.73777600   -2.10807900    0.00012400
 C                -24.09475700   -1.83781000    0.00011600
 C                -24.53945200   -0.46983300    0.00003400
 C                -13.25980800   -0.34840600   -0.00005900
 C                -13.67730600   -1.72817100    0.00000600
 C                -15.02608300   -2.02651800    0.00003600
 C                -15.98224500   -0.94503900   -0.00000500
 H                -24.81537500   -2.65567100    0.00016800
 H                -22.34017400   -3.11620200    0.00018100
 H                -15.40331800   -3.04243500    0.00009000
 H                -12.93896200   -2.53010800    0.00003800
 C                -18.23062800    2.49901300   -0.00014300
 C                -19.63036400    2.48423600   -0.00013700
 H                -17.66238400    3.42309500   -0.00019000
 H                -20.21798100    3.39610600   -0.00018000
 C                 -7.82185700    0.79803400   -0.00009900
 C                 -7.08064900    2.07267600   -0.00013200
 C                 -5.56624000    2.08863300   -0.00011900
 C                 -4.79810000    0.83011300   -0.00007900
 C                 -5.57745700   -0.39310900   -0.00004200
 C                 -7.01642900   -0.40841100   -0.00004700
 C                 -9.21929600    0.67553500   -0.00011100
 N                 -7.70690600    3.25119700   -0.00017800
 N                 -4.96529200    3.28025700   -0.00015200
 N                 -4.90099200   -1.57514700    0.00000600
 N                 -7.66767900   -1.60434100    0.00000800
 C                -10.17631500    1.75687600   -0.00015300
 C                -11.52463300    1.45806600   -0.00014400
 C                -11.94155300    0.07775200   -0.00008800
 C                 -0.66345500    0.19880000   -0.00004400
 C                 -1.11033600    1.56975900   -0.00007400
 C                 -2.46473500    1.83938200   -0.00008900
 C                 -3.39818600    0.73767300   -0.00007000
 H                -12.26336100    2.25965000   -0.00016800
 H                 -9.79924300    2.77288700   -0.00018200
 H                 -2.86352400    2.84701300   -0.00011400
 H                 -0.38918500    2.38719400   -0.00008700
 C                 -5.57254900   -2.75429200    0.00005400
 C                 -6.97137300   -2.76913500    0.00005800
 H                 -4.98454200   -3.66589700    0.00009100
 H                 -7.53990300   -3.69299800    0.00009900
 C                  4.79810000   -0.83008800   -0.00002500
 C                  5.56623900   -2.08860900   -0.00003200
 C                  7.08064800   -2.07265300   -0.00003900
 C                  7.82185700   -0.79801100   -0.00003400
 C                  7.01642900    0.40843400   -0.00001900
 C                  5.57745700    0.39313300   -0.00002000
 C                  3.39818600   -0.73764700   -0.00002200
 N                  4.96529000   -3.28023300   -0.00003500
 N                  7.70690400   -3.25117500   -0.00005200
 N                  7.66768100    1.60436400    0.00000000
 N                  4.90099300    1.57517100   -0.00001300
 C                  2.46473500   -1.83935500   -0.00002000
 C                  1.11033600   -1.56973100   -0.00002200
 C                  0.66345600   -0.19877200   -0.00003200
 C                 11.94155300   -0.07773200   -0.00003200
 C                 11.52463200   -1.45804600   -0.00005300
 C                 10.17631400   -1.75685500   -0.00005500
 C                  9.21929600   -0.67551300   -0.00004100
 H                  0.38918400   -2.38716600   -0.00002300
 H                  2.86352200   -2.84698700   -0.00002000
 H                  9.79924200   -2.77286600   -0.00006200
 H                 12.26336000   -2.25963000   -0.00006000
 C                  6.97137600    2.76915800    0.00001000
 C                  5.57255200    2.75431600    0.00000000
 H                  7.53990600    3.69302000    0.00002400
 H                  4.98454500    3.66592100    0.00000600
 C                 17.38058600    1.06714200    0.00002700
 C                 18.12177500    2.34126600    0.00007000
 C                 19.63617600    2.35694200    0.00008100
 C                 20.40454700    1.09939600    0.00004400
 C                 19.62510400   -0.12328200    0.00000700
 C                 18.18587800   -0.13827700    0.00000300
 C                 15.98224700    0.94505200    0.00001200
 N                 17.49580300    3.52027900    0.00009800
 N                 20.23758100    3.54896900    0.00011900
 N                 20.30144600   -1.30587600   -0.00001900
 N                 17.53462500   -1.33494600   -0.00002400
 C                 15.02608700    2.02653200    0.00003100
 C                 13.67730900    1.72818900    0.00001400
 C                 13.25980900    0.34842400   -0.00001900
 C                 24.53945300    0.46982600    0.00002800
 C                 24.09476200    1.83780500    0.00008300
 C                 22.73778100    2.10807600    0.00008800
 C                 21.80612000    1.00834400    0.00004300
 H                 12.93896700    2.53012700    0.00003100
 H                 15.40332500    3.04245000    0.00006300
 H                 22.34018100    3.11620100    0.00012900
 H                 24.81538100    2.65566300    0.00012000
 C                 19.63035800   -2.48423100   -0.00004900
 C                 18.23062200   -2.49900500   -0.00005000
 H                 20.21797400   -3.39610200   -0.00007000
 H                 17.66237700   -3.42308600   -0.00007200
 C                -33.04014000    0.53626600    0.00006100
 C                -32.29456900    1.79392900   -0.00004100
 C                -30.77918800    1.81196900   -0.00006400
 C                -30.01291400    0.55788200    0.00001300
 C                -30.79883000   -0.65097800    0.00011600
 C                -32.24416200   -0.65957400    0.00013800
 C                -34.47429900    0.44943200    0.00009000
 N                -32.92017600    2.98423800   -0.00011900
 N                -30.17478300    3.00542100   -0.00016200
 N                -30.12424600   -1.83986200    0.00020300
 N                -32.89578900   -1.86951100    0.00024400
 C                -35.38938300    1.51674200    0.00002700
 C                -36.78847900    1.21910000    0.00007800
 C                -37.15801800   -0.11800600    0.00018900
 C                -25.87092100   -0.06938800    0.00001100
 C                -26.31655000    1.29577900   -0.00008200
 C                -27.67679900    1.56428700   -0.00009000
 C                -28.60378800    0.46682300   -0.00000300
 H                -37.52123200    2.02367300    0.00003300
 H                -35.01775500    2.53454400   -0.00005600
 H                -28.07388300    2.57253100   -0.00015300
 H                -25.59773000    2.11518900   -0.00014400
 C                -30.79055200   -3.01047200    0.00030400
 C                -32.20347600   -3.01908300    0.00032400
 H                -30.20776500   -3.92571000    0.00036900
 H                -32.76713300   -3.94694600    0.00040600
 H                -38.18985800   -0.45792800    0.00023700
 C                 30.01291100   -0.55790600    0.00000700
 C                 30.77918200   -1.81199700   -0.00005000
 C                 32.29456200   -1.79396100   -0.00003800
 C                 33.04013800   -0.53630000    0.00003100
 C                 32.24416300    0.65954200    0.00008600
 C                 30.79883200    0.65095100    0.00007400
 C                 28.60378500   -0.46684300    0.00000200
 N                 30.17477200   -3.00544700   -0.00011300
 N                 32.92016500   -2.98427200   -0.00009400
 N                 32.89579500    1.86947700    0.00015300
 N                 30.12425200    1.83983700    0.00013000
 C                 27.67679300   -1.56430500   -0.00005900
 C                 26.31654500   -1.29579100   -0.00005200
 C                 25.87092000    0.06937700    0.00001400
 C                 37.15801800    0.11795700    0.00010800
 C                 36.78847500   -1.21914700    0.00003100
 C                 35.38937700   -1.51678400    0.00000000
 C                 34.47429700   -0.44947100    0.00004800
 H                 25.59772300   -2.11519900   -0.00009800
 H                 28.07387400   -2.57254900   -0.00010700
 H                 35.01774600   -2.53458500   -0.00005900
 H                 37.52122400   -2.02372200   -0.00000500
 C                 32.20348500    3.01905200    0.00020600
 C                 30.79056100    3.01044500    0.00019400
 H                 32.76714500    3.94691200    0.00025800
 H                 30.20777700    3.92568500    0.00023600
 H                 38.18985800    0.45787700    0.00013800
 Te               -35.51401000   -1.40374200    0.00024400
 Te               -27.59515300   -1.38359400    0.00009900
 Te               -22.81483800    0.84597900   -0.00004400
 Te               -15.01560500    0.93067000   -0.00011100
 Te               -10.18502400   -1.20104700   -0.00007600
 Te                -2.39208800   -1.11743900   -0.00002700
 Te                 2.39208900    1.11746600   -0.00002000
 Te                10.18502500    1.20106700   -0.00003800
 Te                15.01560300   -0.93065600   -0.00005300
 Te                22.81483500   -0.84598200   -0.00003600
 Te                27.59515700    1.38357700    0.00008500
 Te                35.51401400    1.40370000    0.00015800
 Te                31.56339400   -4.48302000   -0.00017700
 Te                18.85169300    5.03396400    0.00015400
 Te                 6.35185200   -4.76587900   -0.00005100
 Te                -6.35185500    4.76590200   -0.00020800
 Te               -18.85168200   -5.03395700    0.00023000
 Te               -31.56340900    4.48299000   -0.00024500

 1 2 1.0 6 1.0 7 1.5
 2 3 1.0 8 1.5
 3 4 1.0 9 1.5
 4 5 1.0 18 1.5
 5 6 1.5 10 1.5
 6 11 1.5
 7 12 1.5 161 1.0
 8 175 1.0
 9 175 1.0
 10 23 1.5
 11 24 1.5
 12 13 2.0 20 1.0
 13 14 1.5 19 1.0
 14 119 1.5 161 1.0
 15 16 1.5 40 2.0 162 1.0
 16 17 2.0 22 1.0
 17 18 1.5 21 1.0
 18 162 1.0
 19
 20
 21
 22
 23 24 1.5 25 1.0
 24 26 1.0
 25
 26
 27 28 1.0 32 1.0 33 1.5
 28 29 1.0 34 1.5
 29 30 1.0 35 1.5
 30 31 1.0 44 1.5
 31 32 1.5 36 1.5
 32 37 1.5
 33 38 1.5 163 1.0
 34 174 1.0
 35 174 1.0
 36 49 1.5
 37 50 1.5
 38 39 2.0 46 1.0
 39 40 1.5 45 1.0
 40 163 1.0
 41 42 1.5 66 2.0 164 1.0
 42 43 2.0 48 1.0
 43 44 1.5 47 1.0
 44 164 1.0
 45
 46
 47
 48
 49 50 1.5 51 1.0
 50 52 1.0
 51
 52
 53 54 1.0 58 1.0 59 1.5
 54 55 1.0 60 1.5
 55 56 1.0 61 1.5
 56 57 1.0 70 1.5
 57 58 1.5 62 1.5
 58 63 1.5
 59 64 1.5 165 1.0
 60 173 1.0
 61 173 1.0
 62 75 1.5
 63 76 1.5
 64 65 2.0 72 1.0
 65 66 1.5 71 1.0
 66 165 1.0
 67 68 1.5 92 2.0 166 1.0
 68 69 2.0 74 1.0
 69 70 1.5 73 1.0
 70 166 1.0
 71
 72
 73
 74
 75 76 1.5 77 1.0
 76 78 1.0
 77
 78
 79 80 1.0 84 1.0 85 1.5
 80 81 1.0 86 1.5
 81 82 1.0 87 1.5
 82 83 1.0 96 1.5
 83 84 1.5 88 1.5
 84 89 1.5
 85 90 1.5 167 1.0
 86 172 1.0
 87 172 1.0
 88 101 1.5
 89 102 1.5
 90 91 2.0 98 1.0
 91 92 1.5 97 1.0
 92 167 1.0
 93 94 1.5 145 1.5 168 1.0
 94 95 2.0 100 1.0
 95 96 1.5 99 1.0
 96 168 1.0
 97
 98
 99
 100
 101 102 1.5 103 1.0
 102 104 1.0
 103
 104
 105 106 1.0 110 1.5 111 1.5
 106 107 1.0 112 1.5
 107 108 1.0 113 1.5
 108 109 1.5 122 1.5
 109 110 1.5 114 1.5
 110 115 1.5
 111 116 1.5 159 1.0
 112 176 1.0
 113 176 1.0
 114 127 1.5
 115 128 1.5
 116 117 1.5 124 1.0
 117 118 1.5 123 1.0
 118 131 1.0 159 1.0
 119 120 1.5 160 1.0
 120 121 1.5 126 1.0
 121 122 1.5 125 1.0
 122 160 1.0
 123
 124
 125
 126
 127 128 1.5 129 1.0
 128 130 1.0
 129
 130
 131
 132 133 1.0 137 1.5 138 1.5
 133 134 1.0 139 1.5
 134 135 1.0 140 1.5
 135 136 1.5 149 1.5
 136 137 1.5 141 1.5
 137 142 1.5
 138 143 1.5 169 1.0
 139 171 1.0
 140 171 1.0
 141 154 1.5
 142 155 1.5
 143 144 1.5 151 1.0
 144 145 1.5 150 1.0
 145 169 1.0
 146 147 1.5 158 1.0 170 1.0
 147 148 1.5 153 1.0
 148 149 1.5 152 1.0
 149 170 1.0
 150
 151
 152
 153
 154 155 1.5 156 1.0
 155 157 1.0
 156
 157
 158
 159
 160
 161
 162
 163
 164
 165
 166
 167
 168
 169
 170
 171
 172
 173
 174
 175
 176

