%mem=500MW
%chk=C-TeOTe6-UV.chk
# td=(nstates=10) b3lyp/lanl2dz geom=connectivity

C-TeOTe6-UV

0 1
 C                 20.45593400    0.69306300   -0.00019100
 C                 19.67200200    1.91890600   -0.00022700
 C                 18.21085800    1.91990000   -0.00028400
 C                 17.42614600    0.69389300   -0.00031300
 C                 18.21918200   -0.52265800   -0.00027500
 C                 19.66300200   -0.52289500   -0.00021900
 C                 21.85464900    0.62780900   -0.00013200
 N                 20.12136900    3.18132800   -0.00021100
 N                 17.76284200    3.18219300   -0.00030600
 N                 17.55045000   -1.70980400   -0.00028800
 N                 20.33089000   -1.71126700   -0.00019100
 C                 22.74890000    1.75576900   -0.00010200
 C                 24.11298000    1.51830800   -0.00004900
 C                 24.58822900    0.16171100   -0.00002600
 C                 13.29399200    0.16188000   -0.00044600
 C                 13.77280600    1.52259200   -0.00043900
 C                 15.13340000    1.75820300   -0.00040200
 C                 16.02952400    0.62700900   -0.00037100
 H                 24.81360400    2.35295900   -0.00003000
 H                 22.34391500    2.76244300   -0.00012500
 H                 15.54054100    2.76399800   -0.00038500
 H                 13.07179500    2.35691100   -0.00045400
 C                 18.23827000   -2.87775000   -0.00025600
 C                 19.64199300   -2.87793400   -0.00021000
 H                 17.66447400   -3.79814900   -0.00027000
 H                 20.21491800   -3.79893100   -0.00018500
 C                  7.82653100   -0.73429600   -0.00044700
 C                  7.04009100   -1.95985600   -0.00044400
 C                  5.57906000   -1.95732800   -0.00042000
 C                  4.79697300   -0.72897900   -0.00039200
 C                  5.59226500    0.48718900   -0.00039600
 C                  7.03547700    0.48470300   -0.00041800
 C                  9.22222800   -0.66848300   -0.00047300
 N                  7.48669900   -3.22231300   -0.00046600
 N                  5.12810200   -3.21822500   -0.00042300
 N                  4.92601200    1.67501600   -0.00038000
 N                  7.70588800    1.67015800   -0.00040300
 C                 10.11847500   -1.80037200   -0.00048700
 C                 11.47878800   -1.56507200   -0.00048400
 C                 11.95788700   -0.20410600   -0.00046900
 C                  0.66725600   -0.18489700   -0.00032400
 C                  1.14216900   -1.54766800   -0.00034600
 C                  2.50147900   -1.78737300   -0.00036400
 C                  3.40155500   -0.65826800   -0.00036100
 H                 12.17973100   -2.39946300   -0.00048100
 H                  9.71081900   -2.80597900   -0.00048300
 H                  2.90592400   -2.79427200   -0.00039000
 H                  0.43844500   -2.37971800   -0.00035600
 C                  5.61690900    2.84242000   -0.00037400
 C                  7.01911900    2.83998300   -0.00038100
 H                  5.04452900    3.76367600   -0.00035900
 H                  7.59470800    3.75923300   -0.00037300
 O                  6.30605900   -4.03781700   -0.00045500
 O                 18.94271400    3.99841700   -0.00026300
 C                 -4.79697100    0.72901000   -0.00025500
 C                 -5.57905900    1.95735800   -0.00022600
 C                 -7.04009000    1.95988600   -0.00020300
 C                 -7.82652900    0.73432500   -0.00021400
 C                 -7.03547400   -0.48467400   -0.00021500
 C                 -5.59226200   -0.48715800   -0.00023900
 C                 -3.40155300    0.65830000   -0.00028100
 N                 -5.12810200    3.21825600   -0.00022200
 N                 -7.48669900    3.22234200   -0.00019000
 N                 -7.70588400   -1.67013000   -0.00014800
 N                 -4.92600800   -1.67498400   -0.00022000
 C                 -2.50147600    1.78740400   -0.00027900
 C                 -1.14216600    1.54769900   -0.00029400
 C                 -0.66725400    0.18492700   -0.00031400
 C                -11.95788400    0.20412800   -0.00009600
 C                -11.47878700    1.56509600   -0.00009400
 C                -10.11847500    1.80039800   -0.00015400
 C                 -9.22222500    0.66851000   -0.00021100
 H                 -0.43844200    2.37974800   -0.00028600
 H                 -2.90592100    2.79430300   -0.00025800
 H                 -9.71082000    2.80600600   -0.00012200
 H                -12.17973100    2.39948600   -0.00001800
 C                 -7.01911400   -2.83995300   -0.00013300
 C                 -5.61690300   -2.84238900   -0.00017500
 H                 -7.59470100   -3.75920400   -0.00008700
 H                 -5.04452300   -3.76364500   -0.00016200
 O                 -6.30606000    4.03784700   -0.00019300
 C                -17.42614200   -0.69387600    0.00016200
 C                -18.21085100   -1.91988500    0.00015900
 C                -19.67199600   -1.91889500    0.00020700
 C                -20.45593200   -0.69305500    0.00026100
 C                -19.66300200    0.52290600    0.00022700
 C                -18.21918200    0.52267300    0.00018000
 C                -16.02952000   -0.62699000    0.00013200
 N                -17.76283200   -3.18217700    0.00013200
 N                -20.12136000   -3.18131900    0.00020900
 N                -20.33089300    1.71127600    0.00019300
 N                -17.55045300    1.70982200    0.00010500
 C                -15.13339600   -1.75818400    0.00006200
 C                -13.77280200   -1.52257100   -0.00000900
 C                -13.29398900   -0.16185900   -0.00000400
 C                -24.58822900   -0.16172100    0.00035300
 C                -24.11297400   -1.51831700    0.00032300
 C                -22.74889200   -1.75577100    0.00031000
 C                -21.85464700   -0.62780600    0.00032200
 H                -13.07179000   -2.35689000   -0.00008700
 H                -15.54053600   -2.76397900    0.00003800
 H                -22.34390300   -2.76244400    0.00026000
 H                -24.81359500   -2.35297200    0.00028800
 C                -19.64199900    2.87794500    0.00013300
 C                -18.23827700    2.87776500    0.00008900
 H                -20.21492800    3.79894100    0.00011400
 H                -17.66448300    3.79816600    0.00003300
 O                -18.94270200   -3.99840400    0.00014700
 C                 33.10675700   -0.73777400    0.00056200
 C                 32.31757300   -1.94971300    0.00048000
 C                 30.85509100   -1.95113700    0.00035800
 C                 30.07282600   -0.73017800    0.00030700
 C                 30.87133100    0.47135000    0.00040400
 C                 32.32244500    0.46650500    0.00052400
 C                 34.53772900   -0.71206000    0.00068300
 N                 32.76269700   -3.22244900    0.00049600
 N                 30.40536700   -3.21602000    0.00029800
 N                 30.20373300    1.66610500    0.00040600
 N                 32.99002800    1.66978100    0.00062300
 C                 35.38799000   -1.83203600    0.00074500
 C                 36.79941900   -1.60738900    0.00088100
 C                 37.23563300   -0.28948400    0.00094400
 C                 25.93087400   -0.20870200    0.00002500
 C                 26.40928800   -1.56118400    0.00003700
 C                 27.77792600   -1.79344900    0.00011500
 C                 28.66497300   -0.66723600    0.00018400
 H                 37.49208900   -2.44601600    0.00093800
 H                 34.98002700   -2.83755000    0.00069900
 H                 28.18406000   -2.79966100    0.00014900
 H                 25.71237700   -2.39881800    0.00000400
 C                 30.88552900    2.82503500    0.00050200
 C                 32.30360600    2.82069200    0.00060900
 H                 30.31663200    3.74884600    0.00049400
 H                 32.87051200    3.74643300    0.00068900
 O                 31.58297000   -4.02694000    0.00038800
 H                 38.28245400   -0.00089800    0.00105000
 C                -30.07283100    0.73014400    0.00027200
 C                -30.85510100    1.95109900    0.00030400
 C                -32.31758400    1.94967000    0.00027400
 C                -33.10676500    0.73772800    0.00021400
 C                -32.32244700   -0.46654800    0.00017200
 C                -30.87133200   -0.47138700    0.00020100
 C                -28.66497800    0.66720900    0.00030000
 N                -30.40538300    3.21598500    0.00036500
 N                -32.76271400    3.22240400    0.00032000
 N                -32.99002600   -1.66982700    0.00007900
 N                -30.20372900   -1.66614000    0.00015200
 C                -27.77793500    1.79342600    0.00036400
 C                -26.40929600    1.56116700    0.00038400
 C                -25.93087700    0.20868700    0.00033900
 C                -37.23563900    0.28942400    0.00004600
 C                -36.79943000    1.60733100    0.00012500
 C                -35.38800200    1.83198400    0.00020200
 C                -34.53773700    0.71200900    0.00019300
 H                -25.71238800    2.39880400    0.00043500
 H                -28.18407500    2.79963600    0.00039700
 H                -34.98004000    2.83749900    0.00023100
 H                -37.49210300    2.44595700    0.00010400
 C                -32.30359800   -2.82073600    0.00003100
 C                -30.88552100   -2.82507300    0.00007200
 H                -32.87050100   -3.74647900   -0.00003800
 H                -30.31661900   -3.74888200    0.00003400
 O                -31.58299000    4.02690000    0.00037200
 H                -38.28246000    0.00083500   -0.00002900
 Te                35.66484200    1.07912600    0.00079100
 Te                27.61391900    1.14982200    0.00006100
 Te                22.90261400   -1.19593400   -0.00007100
 Te                14.98512200   -1.19747300   -0.00043200
 Te                10.26716900    1.15621100   -0.00050800
 Te                 2.36282200    1.16987900   -0.00029100
 Te                -2.36282100   -1.16984800   -0.00033500
 Te               -10.26716400   -1.15618500   -0.00032500
 Te               -14.98512000    1.19749400    0.00021100
 Te               -22.90262100    1.19593200    0.00047400
 Te               -27.61391500   -1.14984500    0.00025000
 Te               -35.66484400   -1.07918000    0.00018300

 1 2 1.0 6 1.0 7 1.5
 2 3 1.0 8 1.5
 3 4 1.0 9 1.5
 4 5 1.0 18 1.5
 5 6 1.5 10 1.5
 6 11 1.5
 7 12 1.5 167 1.0
 8 54 1.0
 9 54 1.0
 10 23 1.5
 11 24 1.5
 12 13 2.0 20 1.0
 13 14 1.5 19 1.0
 14 123 1.5 167 1.0
 15 16 1.5 40 2.0 168 1.0
 16 17 2.0 22 1.0
 17 18 1.5 21 1.0
 18 168 1.0
 19
 20
 21
 22
 23 24 1.5 25 1.0
 24 26 1.0
 25
 26
 27 28 1.0 32 1.0 33 1.5
 28 29 1.0 34 1.5
 29 30 1.0 35 1.5
 30 31 1.0 44 1.5
 31 32 1.5 36 1.5
 32 37 1.5
 33 38 1.5 169 1.0
 34 53 1.0
 35 53 1.0
 36 49 1.5
 37 50 1.5
 38 39 2.0 46 1.0
 39 40 1.5 45 1.0
 40 169 1.0
 41 42 1.5 68 2.0 170 1.0
 42 43 2.0 48 1.0
 43 44 1.5 47 1.0
 44 170 1.0
 45
 46
 47
 48
 49 50 1.5 51 1.0
 50 52 1.0
 51
 52
 53
 54
 55 56 1.0 60 1.0 61 1.5
 56 57 1.0 62 1.5
 57 58 1.0 63 1.5
 58 59 1.0 72 1.5
 59 60 1.5 64 1.5
 60 65 1.5
 61 66 1.5 171 1.0
 62 81 1.0
 63 81 1.0
 64 77 1.5
 65 78 1.5
 66 67 2.0 74 1.0
 67 68 1.5 73 1.0
 68 171 1.0
 69 70 1.5 95 2.0 172 1.0
 70 71 2.0 76 1.0
 71 72 1.5 75 1.0
 72 172 1.0
 73
 74
 75
 76
 77 78 1.5 79 1.0
 78 80 1.0
 79
 80
 81
 82 83 1.0 87 1.0 88 1.5
 83 84 1.0 89 1.5
 84 85 1.0 90 1.5
 85 86 1.0 99 1.5
 86 87 1.5 91 1.5
 87 92 1.5
 88 93 1.5 173 1.0
 89 108 1.0
 90 108 1.0
 91 104 1.5
 92 105 1.5
 93 94 2.0 101 1.0
 94 95 1.5 100 1.0
 95 173 1.0
 96 97 1.5 150 1.5 174 1.0
 97 98 2.0 103 1.0
 98 99 1.5 102 1.0
 99 174 1.0
 100
 101
 102
 103
 104 105 1.5 106 1.0
 105 107 1.0
 106
 107
 108
 109 110 1.5 114 1.5 115 1.5
 110 111 1.0 116 1.5
 111 112 1.0 117 1.5
 112 113 1.5 126 1.5
 113 114 1.0 118 1.5
 114 119 1.5
 115 120 1.5 165 1.0
 116 135 1.0
 117 135 1.0
 118 131 1.5
 119 132 1.5
 120 121 1.5 128 1.0
 121 122 1.5 127 1.0
 122 136 1.0 165 1.0
 123 124 1.5 166 1.0
 124 125 1.5 130 1.0
 125 126 1.5 129 1.0
 126 166 1.0
 127
 128
 129
 130
 131 132 1.5 133 1.0
 132 134 1.0
 133
 134
 135
 136
 137 138 1.0 142 1.5 143 1.5
 138 139 1.0 144 1.5
 139 140 1.5 145 1.5
 140 141 1.5 154 1.5
 141 142 1.0 146 1.5
 142 147 1.5
 143 148 1.5 175 1.0
 144 163 1.0
 145 163 1.0
 146 159 1.5
 147 160 1.5
 148 149 1.5 156 1.0
 149 150 1.5 155 1.0
 150 175 1.0
 151 152 1.5 164 1.0 176 1.0
 152 153 1.5 158 1.0
 153 154 1.5 157 1.0
 154 176 1.0
 155
 156
 157
 158
 159 160 1.5 161 1.0
 160 162 1.0
 161
 162
 163
 164
 165
 166
 167
 168
 169
 170
 171
 172
 173
 174
 175
 176

