%chk=AOOO1-b-uv.chk
%mem=100MW
# td=(nstates=10) b3lyp/lanl2dz

AOOO1-b-uv

0 1
 C                 -1.47935400   -0.33802600   -0.00020900
 C                 -0.72736200    0.89303600   -0.00022700
 C                  0.72736400    0.89302900   -0.00026000
 C                  1.47935800   -0.33803700   -0.00028600
 C                  0.71545000   -1.50578600   -0.00042100
 C                 -0.71545000   -1.50578000   -0.00037900
 C                 -2.92666200   -0.33824500    0.00003400
 N                 -1.18013400    2.16081000   -0.00024600
 N                  1.18013300    2.16080500   -0.00031600
 H                  1.23456400   -2.45888500   -0.00048500
 H                 -1.23457700   -2.45887300   -0.00040600
 C                 -3.88882400    0.65972800    0.00044300
 C                 -5.17615000    0.01196600    0.00062600
 C                 -4.94369200   -1.34575000    0.00024100
 C                  4.94367700   -1.34574100    0.00024100
 C                  5.17614000    0.01197300    0.00075400
 C                  3.88881300    0.65973100    0.00055500
 C                  2.92667100   -0.33825500   -0.00007000
 H                 -5.57854400   -2.21710300    0.00024200
 H                 -6.14242300    0.49415300    0.00091900
 H                 -3.68738500    1.72005800    0.00060700
 H                  3.68737400    1.72006500    0.00086400
 H                  6.14241600    0.49414800    0.00125300
 H                  5.57854400   -2.21709000    0.00014200
 O                  0.00000000    2.96175000   -0.00030200
 O                  3.56974100   -1.59155300   -0.00028700
 O                 -3.56972100   -1.59155100   -0.00009400

 1 2 1.5 6 1.5 7 1.5
 2 3 1.0 8 1.5
 3 4 1.5 9 1.5
 4 5 1.5 18 1.5
 5 6 1.5 10 1.0
 6 11 1.0
 7 12 1.5 27 1.0
 8 25 1.0
 9 25 1.0
 10
 11
 12 13 1.5 21 1.0
 13 14 2.0 20 1.0
 14 19 1.0 27 1.0
 15 16 2.0 24 1.0 26 1.0
 16 17 1.5 23 1.0
 17 18 1.5 22 1.0
 18 26 1.0
 19
 20
 21
 22
 23
 24
 25
 26
 27

