%chk=AOSO1-uv.chk
%mem=100MW
# td=(nstates=10) b3lyp/lanl2dz

AOSO1-uv

0 1
 C                  1.47590900   -0.52030900   -0.00018200
 C                  0.73998400    0.72909200    0.00009600
 C                 -0.73998500    0.72908600    0.00010500
 C                 -1.47590300   -0.52031900   -0.00013000
 C                 -0.71384400   -1.68782100   -0.00042000
 C                  0.71385600   -1.68781500   -0.00045500
 C                  2.92659700   -0.54536600   -0.00018100
 N                  1.30399900    1.95221800    0.00035300
 N                 -1.30400900    1.95220800    0.00035900
 H                 -1.22758900   -2.64350700   -0.00064200
 H                  1.22760800   -2.64349800   -0.00070800
 S                 -0.00001000    3.14529900    0.00058800
 C                  3.91901900    0.42296700    0.00014200
 C                  5.19005100   -0.25935800   -0.00004400
 C                  4.92303700   -1.61025100   -0.00047200
 O                  3.53990000   -1.81803500   -0.00053300
 C                 -4.92303900   -1.61025300    0.00023800
 C                 -5.19004500   -0.25935800   -0.00010900
 C                 -3.91901000    0.42296100   -0.00029800
 C                 -2.92659100   -0.54537500   -0.00005700
 O                 -3.53990300   -1.81804100    0.00028900
 H                  5.53541200   -2.49781600   -0.00075700
 H                  6.16884000    0.19693400    0.00011500
 H                  3.74675900    1.48716100    0.00045200
 H                 -3.74674400    1.48715400   -0.00057900
 H                 -6.16883100    0.19694000   -0.00022600
 H                 -5.53541900   -2.49781400    0.00050200

 1 2 1.0 6 1.5 7 1.0
 2 3 1.0 8 1.5
 3 4 1.0 9 1.5
 4 5 1.5 20 1.0
 5 6 1.5 10 1.0
 6 11 1.0
 7 13 1.5 16 1.0
 8 12 1.0
 9 12 1.0
 10
 11
 12
 13 14 1.5 24 1.0
 14 15 2.0 23 1.0
 15 16 1.0 22 1.0
 16
 17 18 2.0 21 1.0 27 1.0
 18 19 1.5 26 1.0
 19 20 1.5 25 1.0
 20 21 1.0
 21
 22
 23
 24
 25
 26
 27

