%chk=ATeOTe1-uv.chk
%mem=100MW
# td=(nstates=10) b3lyp/lanl2dz geom=connectivity

ATeOTe1-uv

0 1
 C                  1.49415300    0.88443700   -0.00016400
 C                  0.73855400   -0.35229600    0.00024900
 C                 -0.73856200   -0.35229000    0.00043100
 C                 -1.49415300    0.88444700    0.00025500
 C                 -0.71307300    2.04385600   -0.00040700
 C                  0.71307900    2.04385100   -0.00063600
 C                  2.95495800    0.91340700   -0.00010300
 N                  1.30083500   -1.57413900    0.00042500
 N                 -1.30085400   -1.57412800    0.00062100
 H                 -1.20456700    3.01181200   -0.00087100
 H                  1.20458100    3.01180300   -0.00128600
 C                  3.75583700    2.05107300    0.00014400
 C                  5.17366800    1.83471600    0.00016100
 C                  5.55653100    0.50904500   -0.00001600
 C                 -5.55652600    0.50904000   -0.00031300
 C                 -5.17367400    1.83471300    0.00075400
 C                 -3.75584600    2.05107700    0.00123000
 C                 -2.95495800    0.91341600    0.00051200
 H                  6.56830700    0.12369500    0.00003200
 H                  5.88646900    2.65377600    0.00033800
 H                  3.34117800    3.05445500    0.00041600
 H                 -3.34119600    3.05446200    0.00218300
 H                 -5.88648300    2.65376700    0.00117800
 H                 -6.56829600    0.12368200   -0.00081200
 O                 -0.00001600   -2.77050200    0.00067300
 Te                -4.06710000   -0.67547700   -0.00067500
 Te                 4.06711300   -0.67547900   -0.00026200

 1 2 1.0 6 1.5 7 1.0
 2 3 1.0 8 1.5
 3 4 1.0 9 1.5
 4 5 1.5 18 1.0
 5 6 1.5 10 1.0
 6 11 1.0
 7 12 1.5 27 1.0
 8 25 1.0
 9 25 1.0
 10
 11
 12 13 1.5 21 1.0
 13 14 2.0 20 1.0
 14 19 1.0 27 1.0
 15 16 2.0 24 1.0 26 1.0
 16 17 1.5 23 1.0
 17 18 1.5 22 1.0
 18 26 1.0
 19
 20
 21
 22
 23
 24
 25
 26
 27

 1 2 1.0 6 1.5 7 1.0
 2 3 1.0 8 1.5
 3 4 1.0 9 1.5
 4 5 1.5 18 1.0
 5 6 1.5 10 1.0
 6 11 1.0
 7 12 1.5 25 1.0
 8 27 1.0
 9 27 1.0
 10
 11
 12 13 1.5 21 1.0
 13 14 2.0 20 1.0
 14 19 1.0 25 1.0
 15 16 2.0 24 1.0 26 1.0
 16 17 1.5 23 1.0
 17 18 1.5 22 1.0
 18 26 1.0
 19
 20
 21
 22
 23
 24
 25
 26
 27







