%chk=B-TeTeTe1-uv.chk
%mem=100MW
# td=(nstates=10) b3lyp/lanl2dz geom=connectivity

B-TeTeTe1-uv

0 1
 C                 -1.48005400    0.49113900    0.01278600
 C                 -0.73010300    1.72573000    0.00553900
 C                  0.73010700    1.72573000   -0.00581100
 C                  1.48005300    0.49112900   -0.01235500
 C                  0.71282700   -0.67883900   -0.00701600
 C                 -0.71283700   -0.67883300    0.00805100
 C                 -2.92280900    0.43283400    0.01928500
 N                 -1.18394100    2.99592500    0.00806200
 N                  1.18393800    2.99592800   -0.00915400
 C                 -3.81938900   -0.62537100   -0.02407600
 C                 -5.15052200   -0.08364600    0.01830200
 C                 -5.03469300    1.28373900    0.08193100
 C                  5.03467100    1.28380000   -0.08115600
 C                  5.15052100   -0.08359800   -0.01785600
 C                  3.81941500   -0.62537800    0.02447400
 C                  2.92280500    0.43281000   -0.01884000
 H                 -5.74024100    2.09512600    0.12387500
 H                  5.74021100    2.09520500   -0.12288000
 H                 -1.22577700   -1.63495400    0.01515600
 H                  1.22576800   -1.63496100   -0.01365600
 O                  6.30030300   -0.87078700    0.01893200
 O                  3.55083900   -1.99120200    0.09068600
 C                  5.98950700   -2.27847100   -0.30955300
 C                  4.75823200   -2.76437400    0.46827900
 O                 -3.55080400   -1.99120700   -0.09061100
 O                 -6.30033200   -0.87074500   -0.01869400
 C                 -4.75811600   -2.76402600   -0.46925400
 C                 -5.98959400   -2.27874600    0.30860800
 H                 -5.82142400   -2.36577500    1.39044700
 H                 -4.91691500   -2.65627900   -1.54999800
 H                  4.52325200   -3.80336600    0.22500500
 H                  6.87802500   -2.84727200   -0.02505000
 H                 -6.87806900   -2.84725800    0.02337600
 H                 -4.52325500   -3.80323100   -0.22676600
 H                  4.91740600   -2.65754900    1.54906300
 H                  5.82104200   -2.36461300   -1.39142400
 Te                 3.67670300    1.61979800   -0.08155200
 Te                -3.67671600    1.61975700    0.08233000
 Te                -0.00001000    3.79040800   -0.00078400

 1 2 1.5 6 1.5 7 1.5
 2 3 1.0 8 1.5
 3 4 1.5 9 1.5
 4 5 1.5 16 1.5
 5 6 1.5 20 1.0
 6 19 1.0
 7 10 1.5 38 1.0
 8 39 1.0
 9 39 1.0
 10 11 1.5 25 1.0
 11 12 2.0 26 1.0
 12 17 1.0 38 1.0
 13 14 2.0 18 1.0 37 1.0
 14 15 1.5 21 1.0
 15 16 1.5 22 1.0
 16 37 1.0
 17
 18
 19
 20
 21 23 1.0
 22 24 1.0
 23 24 1.0 32 1.0 36 1.0
 24 31 1.0 35 1.0
 25 27 1.0
 26 28 1.0
 27 28 1.0 30 1.0 34 1.0
 28 29 1.0 33 1.0
 29
 30
 31
 32
 33
 34
 35
 36
 37
 38
 39

