%chk=A-OOO6uv.chk
%mem=400MW
# td=(nstates=10) b3lyp/lanl2dz geom=connectivity

A-OOO6uv

0 1
 C                 14.65051900    1.86959700   -0.13334500
 C                 15.38070800    3.11409000   -0.09683500
 C                 16.83336800    3.14016200   -0.04268800
 C                 17.60868000    1.92251000   -0.02250400
 C                 16.86402100    0.73828800   -0.06162200
 C                 15.43798000    0.71287000   -0.11546500
 C                 13.20994400    1.85040200   -0.18179500
 N                 14.90544000    4.37309600   -0.10497800
 N                 17.26224000    4.41548800   -0.01718900
 H                 17.39998000   -0.20535300   -0.04890900
 H                 14.93685700   -0.24947900   -0.14213000
 C                 12.23518600    2.84338200   -0.19714500
 C                 10.96103300    2.19729300   -0.24359300
 C                 11.19435100    0.82771600   -0.25635500
 C                 21.09884300    1.00478000    0.11976900
 C                 21.28199900    2.38209700    0.13373400
 C                 19.98563800    2.98201700    0.08097200
 C                 19.04829200    1.95478000    0.03645400
 H                  9.99005700    2.66749400   -0.26622300
 H                 12.43149300    3.90437300   -0.17683200
 H                 19.75082500    4.03532600    0.07558400
 H                 22.23482600    2.88661500    0.17682200
 C                  3.90558200   -1.31471300   -0.40327900
 C                  4.65857000   -2.54549500   -0.43950700
 C                  6.11235600   -2.54584700   -0.42900800
 C                  6.86534800   -1.31549200   -0.38001400
 C                  6.09877800   -0.14487700   -0.34874400
 C                  4.67207700   -0.14438300   -0.36037800
 C                  2.46433600   -1.31720200   -0.40884700
 N                  4.20705300   -3.81310800   -0.48651900
 N                  6.56402600   -3.81363600   -0.46956000
 H                  6.61789700    0.80759000   -0.31140900
 H                  4.15311400    0.80843000   -0.33246700
 C                  1.50218300   -2.32232700   -0.43652800
 C                  0.21889300   -1.69229400   -0.41835900
 C                  0.43468700   -0.31981200   -0.38067800
 C                 10.33248900   -0.31264500   -0.29943200
 C                 10.55337200   -1.68401300   -0.33004600
 C                  9.27242400   -2.31848800   -0.36896300
 C                  8.30653000   -1.31682600   -0.36073600
 H                 -0.74633900   -2.17502600   -0.43119500
 H                  1.71227400   -3.38066800   -0.46570600
 H                  9.06675600   -3.37746300   -0.39881300
 H                 11.51996600   -2.16370000   -0.32525600
 C                 -6.87474900    1.73606800   -0.26313600
 C                 -6.14049400    2.97842500   -0.25752100
 C                 -4.68635100    2.99996000   -0.27514300
 C                 -3.91581900    1.77982600   -0.29817300
 C                 -4.66532300    0.59811600   -0.30254200
 C                 -6.09103500    0.57715700   -0.28569400
 C                 -8.31559800    1.71045200   -0.24540800
 N                 -6.61206300    4.23842500   -0.23730000
 N                 -4.25226300    4.27370000   -0.26546700
 H                 -4.13239700   -0.34697000   -0.31902000
 H                 -6.59614300   -0.38325300   -0.29023300
 C                 -9.30319400    2.69064200   -0.22605000
 C                -10.57079800    2.02691700   -0.21194800
 C                -10.31966600    0.66000300   -0.22338200
 C                 -0.43953000    0.81164800   -0.35017500
 C                 -0.23158500    2.18556400   -0.32825300
 C                 -1.51887600    2.80831700   -0.30532400
 C                 -2.47494400    1.79749000   -0.31367100
 H                -11.54777700    2.48569900   -0.19529200
 H                 -9.12062300    3.75470300   -0.22249100
 H                 -1.73476800    3.86555800   -0.28558600
 H                  0.73056300    2.67405200   -0.33011800
 C                -17.51738300   -1.84974900   -0.04498900
 C                -16.69237000   -3.03352000   -0.08161200
 C                -15.24285200   -2.94721500   -0.12678000
 C                -14.56476600   -1.67331700   -0.13750000
 C                -15.39890800   -0.55052700   -0.10401200
 C                -16.82290100   -0.63517100   -0.05915100
 C                -18.95341800   -1.95035600    0.00568700
 N                -17.06909200   -4.32520300   -0.08003500
 N                -14.71650200   -4.18523600   -0.15343300
 H                -14.93765500    0.43180400   -0.11074000
 H                -17.39715200    0.28515700   -0.03312600
 C                -19.83543200   -3.02634100    0.03056700
 C                -21.16072900   -2.49663400    0.08574400
 C                -21.04992300   -1.11171800    0.09333900
 C                -11.14837000   -0.50571600   -0.21580200
 C                -10.86761600   -1.86630200   -0.23292500
 C                -12.11821300   -2.55661900   -0.20858200
 C                -13.12663300   -1.59840500   -0.17690400
 H                -32.33558900   -2.20938100    0.64537200
 H                -22.08645200   -3.05020800    0.11678900
 H                -19.54506500   -4.06549400    0.01091500
 H                -12.27826100   -3.62373800   -0.21233400
 H                 -9.88059900   -2.30162400   -0.25914000
 C                 25.50639500   -0.96347700    0.33154600
 C                 26.31206200   -2.16046100    0.36717500
 C                 27.76273900   -2.09525600    0.44749800
 C                 28.45786600   -0.83213500    0.49506200
 C                 27.64288100    0.30177300    0.45809000
 C                 26.21795500    0.23852200    0.37900700
 C                 24.06694000   -1.02568400    0.25423700
 N                 25.91760500   -3.44662100    0.33701600
 N                 28.27156700   -3.34152100    0.46682400
 H                 28.11891300    1.27635200    0.49168600
 H                 25.65834000    1.16812900    0.35525600
 C                 23.14482900   -2.06538600    0.19974500
 C                 21.83926800   -1.48216300    0.13747700
 C                 22.00369400   -0.10275500    0.15568800
 C                 31.86199700    0.33819400    0.69544100
 C                 32.15974900   -1.00664700    0.70071700
 C                 30.90822000   -1.71535900    0.62438600
 C                 29.89990000   -0.76464900    0.57604500
 H                 20.89431200   -2.00087300    0.08553800
 H                 23.39367300   -3.11577900    0.20543400
 H                 30.75918100   -2.78401900    0.60709300
 H                 33.14671900   -1.44125300    0.75241900
 H                 32.45280700    1.23884600    0.73616200
 C                -28.50995000    0.16822400    0.46741700
 C                -27.91321300    1.48179100    0.44989300
 C                -26.47168600    1.65977600    0.37388500
 C                -25.57758400    0.52937300    0.31511300
 C                -26.19449900   -0.72496200    0.33496000
 C                -27.61056000   -0.89909700    0.40804900
 C                -29.94315900   -0.01076800    0.54418900
 N                -28.51595400    2.68472800    0.49668800
 N                -26.17614700    2.97265600    0.37250700
 H                -25.56461300   -1.60785700    0.29369800
 H                -28.01022400   -1.90822900    0.41891200
 C                -31.02176100    0.85818800    0.62039600
 C                -32.21574600    0.05332400    0.67665500
 C                -31.81557400   -1.26481900    0.63188200
 C                -22.02260200   -0.06438400    0.14185300
 C                -21.95920000    1.32281100    0.14826800
 C                -23.30435100    1.80744200    0.21278600
 C                -24.14744100    0.70238800    0.24501900
 H                -33.23343400    0.40953700    0.74218100
 H                -30.95574300    1.93591300    0.63312600
 H                -23.62987800    2.83609500    0.23445200
 H                -21.05518000    1.91092900    0.11120500
 O                -30.42379500   -1.33564800    0.55287200
 O                -27.44352000    3.62415700    0.44865200
 O                -23.36402200   -0.46713000    0.20031200
 O                -19.69662800   -0.75144600    0.04389600
 O                -15.84568100   -5.05527300   -0.12496200
 O                -12.53684900   -0.31728600   -0.18222200
 O                 -8.93457000    0.44377700   -0.24453600
 O                 -5.44421600    5.05716400   -0.24217000
 O                 -1.81648300    0.55110100   -0.34136800
 O                  1.81324800   -0.06661300   -0.37459600
 O                  5.38555300   -4.61641300   -0.50717200
 O                  8.95297800   -0.06473500   -0.31774400
 O                 12.57562200    0.59140100   -0.21919400
 O                 16.06939300    5.19585200   -0.05550100
 O                 19.72804100    0.71887300    0.05938900
 O                 23.37089600    0.19981600    0.22709000
 O                 27.13077100   -4.19444700    0.39822400
 O                 30.48059500    0.51787000    0.61969300

 1 2 1.5 6 1.5 7 1.5
 2 3 1.0 8 1.5
 3 4 1.5 9 1.5
 4 5 1.5 18 1.5
 5 6 1.5 10 1.0
 6 11 1.0
 7 12 1.5 147 1.0
 8 148 1.0
 9 148 1.0
 10
 11
 12 13 1.5 20 1.0
 13 14 1.5 19 1.0
 14 37 1.5 147 1.0
 15 16 1.5 103 1.5 149 1.0
 16 17 1.5 22 1.0
 17 18 1.5 21 1.0
 18 149 1.0
 19
 20
 21
 22
 23 24 1.5 28 1.5 29 1.5
 24 25 1.0 30 1.5
 25 26 1.5 31 1.5
 26 27 1.5 40 1.5
 27 28 1.5 32 1.0
 28 33 1.0
 29 34 1.5 144 1.0
 30 145 1.0
 31 145 1.0
 32
 33
 34 35 1.5 42 1.0
 35 36 1.5 41 1.0
 36 59 1.5 144 1.0
 37 38 1.5 146 1.0
 38 39 1.5 44 1.0
 39 40 1.5 43 1.0
 40 146 1.0
 41
 42
 43
 44
 45 46 1.5 50 1.5 51 1.5
 46 47 1.0 52 1.5
 47 48 1.5 53 1.5
 48 49 1.5 62 1.5
 49 50 1.5 54 1.0
 50 55 1.0
 51 56 1.5 141 1.0
 52 142 1.0
 53 142 1.0
 54
 55
 56 57 1.5 64 1.0
 57 58 1.5 63 1.0
 58 81 1.5 141 1.0
 59 60 1.5 143 1.0
 60 61 1.5 66 1.0
 61 62 1.5 65 1.0
 62 143 1.0
 63
 64
 65
 66
 67 68 1.5 72 1.5 73 1.5
 68 69 1.0 74 1.5
 69 70 1.5 75 1.5
 70 71 1.5 84 1.5
 71 72 1.5 76 1.0
 72 77 1.0
 73 78 1.5 138 1.0
 74 139 1.0
 75 139 1.0
 76
 77
 78 79 1.5 87 1.0
 79 80 1.5 86 1.0
 80 127 1.5 138 1.0
 81 82 1.5 140 1.0
 82 83 1.5 89 1.0
 83 84 1.5 88 1.0
 84 140 1.0
 85 126 1.0
 86
 87
 88
 89
 90 91 1.5 95 1.5 96 1.5
 91 92 1.0 97 1.5
 92 93 1.5 98 1.5
 93 94 1.5 107 1.5
 94 95 1.5 99 1.0
 95 100 1.0
 96 101 1.5 150 1.0
 97 151 1.0
 98 151 1.0
 99
 100
 101 102 1.5 109 1.0
 102 103 1.5 108 1.0
 103 150 1.0
 104 105 2.0 112 1.0 152 1.0
 105 106 1.5 111 1.0
 106 107 1.5 110 1.0
 107 152 1.0
 108
 109
 110
 111
 112
 113 114 1.5 118 1.5 119 1.5
 114 115 1.0 120 1.5
 115 116 1.5 121 1.5
 116 117 1.5 130 1.5
 117 118 1.5 122 1.0
 118 123 1.0
 119 124 1.5 135 1.0
 120 136 1.0
 121 136 1.0
 122
 123
 124 125 1.5 132 1.0
 125 126 2.0 131 1.0
 126 135 1.0
 127 128 1.5 137 1.0
 128 129 1.5 134 1.0
 129 130 1.5 133 1.0
 130 137 1.0
 131
 132
 133
 134
 135
 136
 137
 138
 139
 140
 141
 142
 143
 144
 145
 146
 147
 148
 149
 150
 151
 152

