%chk=A-OSO6uv.chk
%mem=600MW
# td=(nstates=10) b3lyp/lanl2dz geom=connectivity

A-OSO6uv

0 1
 C                  3.93609800    1.53926300   -0.00350600
 C                  4.71510600    2.77216400   -0.00347600
 C                  6.20715200    2.71620500   -0.00325400
 C                  6.89089700    1.42792700   -0.00307000
 C                  6.07932000    0.27267600   -0.00313500
 C                  4.65822300    0.32612700   -0.00334600
 C                  2.49194000    1.56307000   -0.00366200
 N                  4.14500900    4.00936200   -0.00362600
 N                  6.86859900    3.90710700   -0.00322400
 H                  6.57558100   -0.70106000   -0.00300100
 H                  4.09019200   -0.60756900   -0.00336700
 C                  1.52062700    2.57633900   -0.00379100
 C                  0.23160900    1.95090300   -0.00385100
 C                  0.43893100    0.56456700   -0.00375700
 O                  1.82978800    0.29604000   -0.00365100
 C                 10.30357100    0.18956600   -0.00232800
 C                 10.61617400    1.55605000   -0.00235300
 C                  9.37866700    2.27805200   -0.00265100
 C                  8.33271900    1.34208200   -0.00280600
 O                  8.89636100    0.02808700   -0.00261200
 H                 -0.73895400    2.43879000   -0.00395000
 H                  1.75294100    3.63681100   -0.00383000
 H                  9.22849100    3.35321000   -0.00274800
 H                 11.62112400    1.96852600   -0.00217400
 C                 -6.89089700   -1.42789800   -0.00313100
 C                 -6.20714900   -2.71617500   -0.00325600
 C                 -4.71510400   -2.77213100   -0.00345000
 C                 -3.93609800   -1.53923000   -0.00351300
 C                 -4.65822400   -0.32609400   -0.00341000
 C                 -6.07932200   -0.27264500   -0.00322600
 C                 -8.33271900   -1.34205500   -0.00289500
 N                 -6.86859500   -3.90707700   -0.00319300
 N                 -4.14500400   -4.00932900   -0.00354400
 H                 -4.09019400    0.60760200   -0.00345600
 H                 -6.57558300    0.70109000   -0.00313600
 C                 -9.37866400   -2.27802700   -0.00272000
 C                -10.61617300   -1.55602700   -0.00246900
 C                -10.30357300   -0.18954300   -0.00249300
 O                 -8.89636400   -0.02806200   -0.00276100
 C                 -0.43893000   -0.56453100   -0.00374300
 C                 -0.23160800   -1.95086800   -0.00378200
 C                 -1.52062600   -2.57630400   -0.00371900
 C                 -2.49194000   -1.56303600   -0.00364400
 O                 -1.82978800   -0.29600600   -0.00366900
 H                -11.62112200   -1.96850500   -0.00229100
 H                 -9.22848600   -3.35318300   -0.00277300
 H                 -1.75294100   -3.63677700   -0.00372300
 H                  0.73895500   -2.43875600   -0.00384700
 C                -17.46431100    2.33340200   -0.00024900
 C                -16.68969300    3.56910000   -0.00057100
 C                -15.19735400    3.51852700   -0.00109200
 C                -14.50911900    2.23282200   -0.00128000
 C                -15.31652200    1.07475800   -0.00096400
 C                -16.73779700    1.12296800   -0.00046700
 C                -18.90860500    2.35114700    0.00028300
 N                -17.26429800    4.80417000   -0.00041100
 N                -14.54014100    4.71180600   -0.00136800
 H                -14.81677400    0.10281700   -0.00109900
 H                -17.30242000    0.18724000   -0.00023000
 C                -19.88508700    3.35919800    0.00060400
 C                -21.17110200    2.72691200    0.00111900
 C                -20.95647200    1.34185700    0.00110300
 O                -19.56433800    1.08074000    0.00058400
 C                -11.09346500    1.00288900   -0.00230000
 C                -10.78380300    2.36997500   -0.00242500
 C                -12.02302300    3.08946000   -0.00207600
 C                -13.06689700    2.15124300   -0.00174600
 O                -12.50046100    0.83868100   -0.00188600
 H                -22.14413900    3.20984400    0.00146500
 H                -19.65859600    4.42094200    0.00047000
 H                -12.17541000    4.16431700   -0.00205500
 H                 -9.77980400    2.78479700   -0.00273000
 C                -28.27349800   -0.70958100    0.00449800
 C                -27.57889700   -1.99057000    0.00416800
 C                -26.08627400   -2.03451400    0.00344800
 C                -25.31773300   -0.79475900    0.00307400
 C                -26.04978300    0.41017300    0.00341000
 C                -27.47406100    0.45036700    0.00409700
 C                -29.72216200   -0.63569800    0.00521200
 N                -28.23142000   -3.18751100    0.00450300
 N                -25.50619200   -3.26688200    0.00318600
 H                -25.49127000    1.34960700    0.00313700
 H                -27.97911700    1.41967500    0.00433600
 C                -30.75685300   -1.57534000    0.00571600
 C                -32.00572500   -0.84843600    0.00632800
 C                -31.69215800    0.50348400    0.00619400
 O                -30.29391800    0.67346100    0.00550500
 C                -21.82696600    0.20657500    0.00149500
 C                -21.60908700   -1.17767300    0.00142300
 C                -22.89388200   -1.81297600    0.00199700
 C                -23.87209100   -0.80733000    0.00240800
 O                -23.21985400    0.46454500    0.00209400
 H                -32.27475000    1.41906400    0.00649100
 H                -33.00600100   -1.27376600    0.00681000
 H                -30.60535200   -2.65029900    0.00563200
 H                -23.11816300   -2.87515500    0.00211600
 H                -20.63491200   -1.65830900    0.00100500
 C                 14.50911100   -2.23280900   -0.00098800
 C                 15.19734200   -3.51851600   -0.00074300
 C                 16.68968100   -3.56909400   -0.00022300
 C                 17.46430200   -2.33340000    0.00004000
 C                 16.73779300   -1.12296200   -0.00023000
 C                 15.31651800   -1.07474800   -0.00072500
 C                 13.06688900   -2.15122600   -0.00146000
 N                 14.54012500   -4.71179200   -0.00096400
 N                 17.26428200   -4.80416700   -0.00000900
 H                 17.30241900   -0.18723700   -0.00003700
 H                 14.81677300   -0.10280500   -0.00090400
 C                 12.02301300   -3.08944100   -0.00175000
 C                 10.78379500   -2.36995300   -0.00213800
 C                 11.09346100   -1.00286700   -0.00207600
 O                 12.50045700   -0.83866300   -0.00166400
 C                 20.95646700   -1.34186800    0.00132000
 C                 21.17109400   -2.72692300    0.00139600
 C                 19.88507600   -3.35920400    0.00092100
 C                 18.90859800   -2.35115000    0.00056400
 O                 19.56433500   -1.08074500    0.00080100
 H                  9.77979500   -2.78477200   -0.00242800
 H                 12.17539700   -4.16429800   -0.00167800
 H                 19.65858000   -4.42094800    0.00083800
 H                 22.14412700   -3.20985900    0.00175600
 C                 25.31773800    0.79473000    0.00312400
 C                 26.08628500    2.03448100    0.00343700
 C                 27.57890800    1.99052800    0.00412600
 C                 28.27350200    0.70953700    0.00448500
 C                 27.47406000   -0.45040800    0.00414400
 C                 26.04978300   -0.41020600    0.00348600
 C                 23.87209700    0.80730600    0.00248800
 N                 25.50621100    3.26685100    0.00314300
 N                 28.23143800    3.18746600    0.00440200
 H                 27.97911200   -1.41971800    0.00440600
 H                 25.49126500   -1.34963800    0.00325900
 C                 22.89389100    1.81295700    0.00205700
 C                 21.60909500    1.17766000    0.00153200
 C                 21.82696700   -0.20659000    0.00165200
 O                 23.21985500   -0.46456500    0.00223500
 C                 31.69215700   -0.50354300    0.00614200
 C                 32.00573100    0.84837400    0.00622800
 C                 30.75686300    1.57528300    0.00561500
 C                 29.72216700    0.63564600    0.00516900
 O                 30.29391600   -0.67351500    0.00549300
 H                 20.63492100    1.65829900    0.00111400
 H                 23.11817600    2.87513500    0.00213200
 H                 30.60536700    2.65024300    0.00549800
 H                 33.00600900    1.27370000    0.00667600
 H                 32.27474500   -1.41912700    0.00645600
 S                 26.90714000    4.54531400    0.00372300
 S                 15.85796600   -6.07683900   -0.00049500
 S                  5.55586000    5.27694900   -0.00352100
 S                 -5.55585400   -5.27691700   -0.00341500
 S                -15.85798800    6.07684700   -0.00096100
 S                -26.90711500   -4.54535200    0.00383600

 1 2 1.0 6 1.5 7 1.5
 2 3 1.0 8 1.5
 3 4 1.0 9 1.5
 4 5 1.5 19 1.5
 5 6 1.5 10 1.0
 6 11 1.0
 7 12 1.5 15 1.0
 8
 9
 10
 11
 12 13 1.5 22 1.0
 13 14 1.5 21 1.0
 14 15 1.0 40 1.5
 15
 16 17 1.5 20 1.0 111 1.5
 17 18 1.5 24 1.0
 18 19 1.5 23 1.0
 19 20 1.0
 20
 21
 22
 23
 24
 25 26 1.0 30 1.5 31 1.5
 26 27 1.0 32 1.5
 27 28 1.0 33 1.5
 28 29 1.5 43 1.5
 29 30 1.5 34 1.0
 30 35 1.0
 31 36 1.5 39 1.0
 32
 33
 34
 35
 36 37 1.5 46 1.0
 37 38 1.5 45 1.0
 38 39 1.0 64 1.5
 39
 40 41 1.5 44 1.0
 41 42 1.5 48 1.0
 42 43 1.5 47 1.0
 43 44 1.0
 44
 45
 46
 47
 48
 49 50 1.0 54 1.5 55 1.5
 50 51 1.0 56 1.5
 51 52 1.0 57 1.5
 52 53 1.5 67 1.5
 53 54 1.5 58 1.0
 54 59 1.0
 55 60 1.5 63 1.0
 56
 57
 58
 59
 60 61 1.5 70 1.0
 61 62 1.5 69 1.0
 62 63 1.0 88 1.5
 63
 64 65 1.5 68 1.0
 65 66 1.5 72 1.0
 66 67 1.5 71 1.0
 67 68 1.0
 68
 69
 70
 71
 72
 73 74 1.0 78 1.5 79 1.0
 74 75 1.0 80 1.5
 75 76 1.0 81 1.5
 76 77 1.5 91 1.5
 77 78 1.5 82 1.0
 78 83 1.0
 79 84 1.5 87 1.0
 80
 81
 82
 83
 84 85 1.5 95 1.0
 85 86 1.5 94 1.0
 86 87 1.0 93 1.0
 87
 88 89 1.5 92 1.0
 89 90 1.5 97 1.0
 90 91 1.5 96 1.0
 91 92 1.0
 92
 93
 94
 95
 96
 97
 98 99 1.0 103 1.5 104 1.5
 99 100 1.0 105 1.5
 100 101 1.0 106 1.5
 101 102 1.5 116 1.5
 102 103 1.5 107 1.0
 103 108 1.0
 104 109 1.5 112 1.0
 105
 106
 107
 108
 109 110 1.5 119 1.0
 110 111 1.5 118 1.0
 111 112 1.0
 112
 113 114 1.5 117 1.0 135 1.5
 114 115 1.5 121 1.0
 115 116 1.5 120 1.0
 116 117 1.0
 117
 118
 119
 120
 121
 122 123 1.0 127 1.5 128 1.5
 123 124 1.0 129 1.5
 124 125 1.0 130 1.5
 125 126 1.5 140 1.0
 126 127 1.5 131 1.0
 127 132 1.0
 128 133 1.5 136 1.0
 129
 130
 131
 132
 133 134 1.5 143 1.0
 134 135 1.5 142 1.0
 135 136 1.0
 136
 137 138 1.5 141 1.0 146 1.0
 138 139 1.5 145 1.0
 139 140 1.5 144 1.0
 140 141 1.0
 141
 142
 143
 144
 145
 146
 147
 148
 149
 150
 151
 152

