%chk=A-OSeO6uv.chk
%mem=600MW
# td=(nstates=6,root=1) b3lyp/lanl2dz geom=connectivity

A-OSeO6uv

0 1
 C                  3.94590200    1.51395300   -0.00349000
 C                  4.73281200    2.74182500   -0.00346000
 C                  6.22446800    2.67628500   -0.00323800
 C                  6.89992500    1.38364300   -0.00305400
 C                  6.08094600    0.23362800   -0.00311900
 C                  4.66022100    0.29620400   -0.00333000
 C                  2.50192700    1.54703400   -0.00364600
 N                  4.17067200    3.98265900   -0.00361000
 N                  6.89354900    3.86291500   -0.00320800
 H                  6.57094300   -0.74327500   -0.00298500
 H                  4.08620600   -0.63382500   -0.00335100
 Se                 5.58963500    5.24115900   -0.00350500
 C                  1.53714100    2.56652000   -0.00377500
 C                  0.24413300    1.94937500   -0.00383500
 C                  0.44254800    0.56173600   -0.00374100
 O                  1.83165100    0.28428300   -0.00363500
 C                 10.30457600    0.12339000   -0.00231200
 C                 10.62594800    1.48783800   -0.00233700
 C                  9.39310400    2.21777300   -0.00263500
 C                  8.34116600    1.28854000   -0.00279000
 O                  8.89635800   -0.02904800   -0.00259600
 H                 -0.72327700    2.44348500   -0.00393400
 H                  1.77626100    3.62547800   -0.00381400
 H                  9.24983600    3.29387300   -0.00273200
 H                 11.63352600    1.89385200   -0.00215800
 C                 -6.89992500   -1.38361400   -0.00311500
 C                 -6.22446500   -2.67625500   -0.00324000
 C                 -4.73281000   -2.74179200   -0.00343400
 C                 -3.94590200   -1.51392000   -0.00349700
 C                 -4.66022200   -0.29617100   -0.00339400
 C                 -6.08094800   -0.23359700   -0.00321000
 C                 -8.34116600   -1.28851300   -0.00287900
 N                 -6.89354600   -3.86288500   -0.00317700
 N                 -4.17066700   -3.98262600   -0.00352800
 H                 -4.08620800    0.63385800   -0.00344000
 H                 -6.57094500    0.74330500   -0.00312000
 Se                -5.58962900   -5.24112700   -0.00339900
 C                 -9.39310100   -2.21774800   -0.00270400
 C                -10.62594700   -1.48781600   -0.00245300
 C                -10.30457800   -0.12336700   -0.00247700
 O                 -8.89636100    0.02907300   -0.00274500
 C                 -0.44254700   -0.56170100   -0.00372700
 C                 -0.24413200   -1.94934000   -0.00376600
 C                 -1.53714000   -2.56648500   -0.00370300
 C                 -2.50192700   -1.54700000   -0.00362800
 O                 -1.83165100   -0.28424900   -0.00365300
 H                -11.63352500   -1.89383100   -0.00227500
 H                 -9.24983100   -3.29384700   -0.00275700
 H                 -1.77626100   -3.62544400   -0.00370700
 H                  0.72327700   -2.44345100   -0.00383100
 C                -17.44896500    2.44551300   -0.00023300
 C                -16.66642700    3.67621100   -0.00055500
 C                -15.17444400    3.61605500   -0.00107600
 C                -14.49448000    2.32595700   -0.00126400
 C                -15.30930400    1.17310200   -0.00094800
 C                -16.73024000    1.23043900   -0.00045100
 C                -18.89311600    2.47253400    0.00029900
 N                -17.23308900    4.91494600   -0.00039500
 N                -14.50958100    4.80508900   -0.00135200
 H                -14.81580800    0.19797100   -0.00108300
 H                -17.30086100    0.29835600   -0.00021400
 Se               -15.81863400    6.17856500   -0.00094500
 C                -19.86310400    3.48683500    0.00062000
 C                -21.15315300    2.86282100    0.00113500
 C                -20.94742200    1.47641600    0.00111900
 O                -19.55699400    1.20636400    0.00060000
 C                -11.08679600    1.07411300   -0.00228400
 C                -10.76836000    2.43918200   -0.00240900
 C                -12.00293400    3.16661100   -0.00206000
 C                -13.05281200    2.23511700   -0.00173000
 O                -12.49481700    0.91894400   -0.00187000
 H                -22.12306800    3.35199200    0.00148100
 H                -19.62979900    4.54710300    0.00048600
 H                -12.14841500    4.24242400   -0.00203900
 H                 -9.76171800    2.84754800   -0.00271400
 C                -28.27747200   -0.52798800    0.00451400
 C                -27.59111200   -1.81341100    0.00418400
 C                -26.09880200   -1.86694000    0.00346400
 C                -25.32231500   -0.63214700    0.00309000
 C                -26.04661200    0.57746200    0.00342600
 C                -27.47060200    0.62680200    0.00411300
 C                -29.72563200   -0.44480300    0.00522800
 N                -28.25130900   -3.00613700    0.00451900
 N                -25.52664700   -3.10300800    0.00320200
 H                -25.48207700    1.51329000    0.00315300
 H                -27.96942300    1.59933400    0.00435200
 Se               -26.93575200   -4.37245500    0.00385200
 C                -30.76633600   -1.37778000    0.00573200
 C                -32.01051400   -0.64287100    0.00634400
 C                -31.68827100    0.70700700    0.00621000
 O                -30.28896800    0.86800100    0.00552100
 C                -21.82518900    0.34674800    0.00151100
 C                -21.61620500   -1.03887100    0.00143900
 C                -22.90505300   -1.66590900    0.00201300
 C                -23.87678400   -0.65400200    0.00242400
 O                -23.21639200    0.61365800    0.00211000
 H                -32.26497100    1.62631000    0.00650700
 H                -33.01350100   -1.06176800    0.00682600
 H                -30.62174200   -2.45369000    0.00564800
 H                -23.13615100   -2.72662600    0.00213200
 H                -20.64513700   -1.52575300    0.00102100
 C                 14.49447200   -2.32594400   -0.00097200
 C                 15.17443200   -3.61604400   -0.00072700
 C                 16.66641500   -3.67620500   -0.00020700
 C                 17.44895600   -2.44551100    0.00005600
 C                 16.73023600   -1.23043300   -0.00021400
 C                 15.30930000   -1.17309200   -0.00070900
 C                 13.05280400   -2.23510000   -0.00144400
 N                 14.50956500   -4.80507500   -0.00094800
 N                 17.23307200   -4.91494300    0.00000700
 H                 17.30086000   -0.29835300   -0.00002100
 H                 14.81580700   -0.19795900   -0.00088800
 Se                15.81861200   -6.17855700   -0.00047900
 C                 12.00292400   -3.16659200   -0.00173400
 C                 10.76835200   -2.43916000   -0.00212200
 C                 11.08679100   -1.07409100   -0.00206000
 O                 12.49481300   -0.91892600   -0.00164800
 C                 20.94741700   -1.47642700    0.00133600
 C                 21.15314400   -2.86283200    0.00141200
 C                 19.86309200   -3.48684100    0.00093700
 C                 18.89310800   -2.47253700    0.00058000
 O                 19.55699100   -1.20636900    0.00081700
 H                  9.76170900   -2.84752300   -0.00241200
 H                 12.14840200   -4.24240500   -0.00166200
 H                 19.62978200   -4.54710900    0.00085400
 H                 22.12305600   -3.35200700    0.00177200
 C                 25.32232000    0.63211800    0.00314000
 C                 26.09881300    1.86690700    0.00345300
 C                 27.59112300    1.81336900    0.00414200
 C                 28.27747600    0.52794400    0.00450100
 C                 27.47060100   -0.62684300    0.00416000
 C                 26.04661100   -0.57749500    0.00350200
 C                 23.87678900    0.65397800    0.00250400
 N                 25.52666500    3.10297700    0.00315900
 N                 28.25132600    3.00609200    0.00441800
 H                 27.96941700   -1.59937700    0.00442200
 H                 25.48207100   -1.51332100    0.00327500
 Se                26.93577600    4.37241700    0.00373900
 C                 22.90506200    1.66589000    0.00207300
 C                 21.61621200    1.03885700    0.00154800
 C                 21.82519000   -0.34676300    0.00166800
 O                 23.21639200   -0.61367800    0.00225100
 C                 31.68826900   -0.70706700    0.00615800
 C                 32.01051900    0.64280900    0.00624400
 C                 30.76634500    1.37772300    0.00563100
 C                 29.72563600    0.44475100    0.00518500
 O                 30.28896600   -0.86805500    0.00550900
 H                 20.64514500    1.52574300    0.00113000
 H                 23.13616400    2.72660600    0.00214800
 H                 30.62175600    2.45363400    0.00551400
 H                 33.01350800    1.06170200    0.00669200
 H                 32.26496500   -1.62637300    0.00647200

 1 2 1.0 6 1.5 7 1.5
 2 3 1.0 8 1.5
 3 4 1.0 9 1.5
 4 5 1.5 20 1.5
 5 6 1.5 10 1.0
 6 11 1.0
 7 13 1.5 16 1.0
 8 12 1.0
 9 12 1.0
 10
 11
 12
 13 14 1.5 23 1.0
 14 15 1.5 22 1.0
 15 16 1.0 42 1.5
 16
 17 18 1.5 21 1.0 116 1.5
 18 19 1.5 25 1.0
 19 20 1.5 24 1.0
 20 21 1.0
 21
 22
 23
 24
 25
 26 27 1.0 31 1.5 32 1.5
 27 28 1.0 33 1.5
 28 29 1.0 34 1.5
 29 30 1.5 45 1.5
 30 31 1.5 35 1.0
 31 36 1.0
 32 38 1.5 41 1.0
 33 37 1.0
 34 37 1.0
 35
 36
 37
 38 39 1.5 48 1.0
 39 40 1.5 47 1.0
 40 41 1.0 67 1.5
 41
 42 43 1.5 46 1.0
 43 44 1.5 50 1.0
 44 45 1.5 49 1.0
 45 46 1.0
 46
 47
 48
 49
 50
 51 52 1.0 56 1.5 57 1.5
 52 53 1.0 58 1.5
 53 54 1.0 59 1.5
 54 55 1.5 70 1.5
 55 56 1.5 60 1.0
 56 61 1.0
 57 63 1.5 66 1.0
 58 62 1.0
 59 62 1.0
 60
 61
 62
 63 64 1.5 73 1.0
 64 65 1.5 72 1.0
 65 66 1.0 92 1.5
 66
 67 68 1.5 71 1.0
 68 69 1.5 75 1.0
 69 70 1.5 74 1.0
 70 71 1.0
 71
 72
 73
 74
 75
 76 77 1.0 81 1.5 82 1.0
 77 78 1.0 83 1.5
 78 79 1.0 84 1.5
 79 80 1.5 95 1.5
 80 81 1.5 85 1.0
 81 86 1.0
 82 88 1.5 91 1.0
 83 87 1.0
 84 87 1.0
 85
 86
 87
 88 89 1.5 99 1.0
 89 90 1.5 98 1.0
 90 91 1.0 97 1.0
 91
 92 93 1.5 96 1.0
 93 94 1.5 101 1.0
 94 95 1.5 100 1.0
 95 96 1.0
 96
 97
 98
 99
 100
 101
 102 103 1.0 107 1.5 108 1.5
 103 104 1.0 109 1.5
 104 105 1.0 110 1.5
 105 106 1.5 121 1.5
 106 107 1.5 111 1.0
 107 112 1.0
 108 114 1.5 117 1.0
 109 113 1.0
 110 113 1.0
 111
 112
 113
 114 115 1.5 124 1.0
 115 116 1.5 123 1.0
 116 117 1.0
 117
 118 119 1.5 122 1.0 141 1.5
 119 120 1.5 126 1.0
 120 121 1.5 125 1.0
 121 122 1.0
 122
 123
 124
 125
 126
 127 128 1.0 132 1.5 133 1.5
 128 129 1.0 134 1.5
 129 130 1.0 135 1.5
 130 131 1.5 146 1.0
 131 132 1.5 136 1.0
 132 137 1.0
 133 139 1.5 142 1.0
 134 138 1.0
 135 138 1.0
 136
 137
 138
 139 140 1.5 149 1.0
 140 141 1.5 148 1.0
 141 142 1.0
 142
 143 144 1.5 147 1.0 152 1.0
 144 145 1.5 151 1.0
 145 146 1.5 150 1.0
 146 147 1.0
 147
 148
 149
 150
 151
 152

