%mem=400MW
%chk=A-OTeO6uv.chk
# td=(nstates=6,root=1) b3lyp/lanl2dz geom=connectivity

A-OTeO6uv

0 1
 C                 14.39595200    2.21106400    0.02275600
 C                 15.05512900    3.51377600    0.04678300
 C                 16.55543100    3.58683900    0.05984100
 C                 17.33979900    2.35510300    0.04734700
 C                 16.63638100    1.15011100    0.02387700
 C                 15.21461500    1.08088800    0.01222000
 C                 12.95378200    2.10296800    0.01077200
 N                 14.36863500    4.66713500    0.05828400
 N                 17.12568300    4.80148600    0.08269500
 H                 17.20349100    0.22470900    0.01436700
 H                 14.74096100    0.10446600   -0.00562400
 C                 11.90314200    3.01511300    0.01489500
 C                 10.67997600    2.27459300   -0.00437100
 C                 11.01478300    0.92653100   -0.01963500
 C                 20.83424300    1.42249300    0.05837800
 C                 21.02796400    2.79742300    0.08367400
 C                 19.73528900    3.40756900    0.08408800
 C                 18.78482700    2.39176900    0.05927900
 H                  9.67523400    2.66930500   -0.00662700
 H                 12.03192300    4.08489800    0.03026100
 H                 19.49589200    4.45769100    0.10003100
 H                 21.98653500    3.29296500    0.09945000
 C                  3.89158700   -1.57728100   -0.11285400
 C                  4.64569300   -2.82733700   -0.11847200
 C                  6.14792900   -2.78970400   -0.10504100
 C                  6.83737900   -1.50326400   -0.08609100
 C                  6.04603400   -0.35389500   -0.08241800
 C                  4.62378000   -0.38937700   -0.09545300
 C                  2.44572200   -1.57239300   -0.12413900
 N                  4.04634800   -4.02806200   -0.13569300
 N                  6.80772100   -3.95855200   -0.11128400
 H                  6.54281500    0.61095200   -0.06875600
 H                  4.07900300    0.54918000   -0.09110600
 C                  1.46029400   -2.55463200   -0.13557900
 C                  0.18877900   -1.89903900   -0.14080700
 C                  0.43038600   -0.53151200   -0.13277500
 C                 10.23687100   -0.27405600   -0.04122400
 C                 10.55308600   -1.62651900   -0.05347300
 C                  9.31883700   -2.35060400   -0.07281600
 C                  8.28122400   -1.42383400   -0.07198200
 H                 -0.78609100   -2.36236300   -0.15014200
 H                  1.66188900   -3.61289000   -0.13967100
 H                  9.17616500   -3.41842100   -0.08595100
 H                 11.55157300   -2.03615800   -0.04876600
 C                 -6.82667700    1.59392900   -0.14253300
 C                 -6.13628900    2.88004200   -0.15491800
 C                 -4.63380400    2.91666600   -0.15475600
 C                 -3.88042200    1.66614400   -0.14376700
 C                 -4.61334000    0.47875700   -0.13451200
 C                 -6.03570100    0.44415000   -0.13348000
 C                 -8.27075300    1.51359000   -0.13752500
 N                 -6.79519200    4.04930400   -0.16584100
 N                 -4.03347500    4.11697100   -0.16546600
 H                 -4.06922600   -0.46019900   -0.12671400
 H                 -6.53305400   -0.52032100   -0.12434600
 C                 -9.31044300    2.43841500   -0.14763200
 C                -10.54358700    1.71182000   -0.13112400
 C                -10.22473200    0.36006000   -0.11114500
 C                 -0.41971800    0.61910900   -0.13492400
 C                 -0.17769000    1.98673400   -0.13606600
 C                 -1.44900900    2.64241200   -0.14109000
 C                 -2.43472100    1.66052800   -0.14202000
 H                -11.54322000    2.11957300   -0.13287300
 H                 -9.17002800    3.50681400   -0.16428400
 H                 -1.65037100    3.70056100   -0.14389000
 H                  0.79704200    2.44959600   -0.13412000
 C                -17.31511400   -2.31708700    0.01600100
 C                -16.51869000   -3.54135700    0.03253900
 C                -15.01959600   -3.45392100    0.01010700
 C                -14.37302200   -2.14526000   -0.02607000
 C                -15.20228800   -1.02267400   -0.03998200
 C                -16.62339900   -1.10564600   -0.01993600
 C                -18.75965800   -2.36934300    0.03643800
 N                -17.07664800   -4.76141100    0.06729900
 N                -14.32192600   -4.60053300    0.02523000
 H                -14.73789300   -0.04199300   -0.06704100
 H                -17.19949700   -0.18567300   -0.03283300
 C                -19.69713000   -3.39689500    0.07099600
 C                -20.99712800   -2.80307000    0.07667300
 C                -20.82093200   -1.42580100    0.04540700
 C                -10.99906600   -0.84267200   -0.08532900
 C                -10.65835500   -2.18890200   -0.06531800
 C                -11.87788900   -2.93441500   -0.03969200
 C                -12.93237900   -2.02681400   -0.04472400
 H                -31.92574100   -2.50717400    0.28667600
 H                -21.94928200   -3.31020000    0.10094900
 H                -19.44442800   -4.44376600    0.08960200
 H                -12.00243700   -4.00392300   -0.01938800
 H                 -9.65266800   -2.57968000   -0.06838800
 C                 25.26228100   -0.49634000    0.07663900
 C                 26.10659300   -1.68688600    0.06190300
 C                 27.60172900   -1.53781000    0.09260600
 C                 28.19231400   -0.20468000    0.13519000
 C                 27.32027700    0.88126600    0.14563700
 C                 25.90287800    0.74075300    0.11764800
 C                 23.81891200   -0.59415500    0.05210700
 N                 25.59725400   -2.92790200    0.02335100
 N                 28.34728500   -2.65448200    0.08041900
 H                 27.74447700    1.87965800    0.17742100
 H                 25.29051800    1.63671600    0.12977600
 C                 22.89979700   -1.63741100    0.01685200
 C                 21.58715200   -1.06432400    0.01255300
 C                 21.74066200    0.31548300    0.04512400
 C                 31.47955900    1.28589800    0.23031500
 C                 31.91102300   -0.02137700    0.20801300
 C                 30.73398700   -0.85317500    0.16690700
 C                 29.63084600   -0.01340000    0.16607000
 H                 20.64503600   -1.59032700   -0.01174500
 H                 23.16876500   -2.68039300   -0.00274000
 H                 30.68083100   -1.92910300    0.14102900
 H                 32.93860600   -0.35473600    0.21928200
 H                 31.97743800    2.24211100    0.26150700
 C                -28.20559500    0.03635700    0.15950400
 C                -27.64822900    1.38370200    0.12146200
 C                -26.15728300    1.57029700    0.08347100
 C                -25.28401100    0.40079200    0.08765800
 C                -25.89381900   -0.85196200    0.12478000
 C                -27.30694000   -1.02775000    0.15898800
 C                -29.63873100   -0.19131600    0.19605000
 N                -28.42136600    2.48168600    0.11818300
 N                -25.67901500    2.82356900    0.04742400
 H                -25.25936000   -1.73242800    0.12824800
 H                -27.70614800   -2.03649500    0.18647200
 C                -30.76290900    0.61958600    0.20910000
 C                -31.91821400   -0.24233900    0.25001700
 C                -31.45298900   -1.53853200    0.26012900
 C                -21.74595700   -0.33405000    0.03716000
 C                -21.62169700    1.04867800    0.00452600
 C                -22.94636900    1.59416700    0.01672400
 C                -23.84313200    0.53211700    0.05646400
 H                -32.95377800    0.06399400    0.26930000
 H                -30.73784300    1.69677700    0.19113100
 H                -23.23675000    2.63172700   -0.00062300
 H                -20.69107000    1.59472300   -0.02462500
 Te                27.11895800   -4.26468100    0.01462000
 Te                15.67581300    6.21413800    0.09262700
 Te                 5.46393700   -5.47438700   -0.13754400
 Te                -5.45000400    5.56427500   -0.17916100
 Te               -15.61325400   -6.15990600    0.07730000
 Te               -27.23398700    4.12221900    0.05739600
 O                 30.08542400    1.32445200    0.20580300
 O                 23.10694900    0.62708000    0.06921300
 O                 19.46032900    1.14733400    0.04397300
 O                 12.41036600    0.79586700   -0.01033800
 O                  8.84308700   -0.12568100   -0.05279000
 O                  1.81374800   -0.30618100   -0.12212700
 O                 -1.80309000    0.39420500   -0.13842100
 O                 -8.83055000    0.21436800   -0.11521200
 O                -12.39514300   -0.71764600   -0.07330300
 O                -19.45076300   -1.13315800    0.01977000
 O                -23.10553600   -0.67366700    0.06925900
 O                -30.05852300   -1.54073500    0.22769500

 1 2 1.0 6 1.5 7 1.5
 2 3 1.0 8 1.5
 3 4 1.0 9 1.5
 4 5 1.5 18 1.5
 5 6 1.5 10 1.0
 6 11 1.0
 7 12 1.5 144 1.0
 8 136 1.0
 9 136 1.0
 10
 11
 12 13 1.5 20 1.0
 13 14 1.5 19 1.0
 14 37 1.5 144 1.0
 15 16 1.5 103 1.5 143 1.0
 16 17 1.5 22 1.0
 17 18 1.5 21 1.0
 18 143 1.0
 19
 20
 21
 22
 23 24 1.0 28 1.5 29 1.5
 24 25 1.0 30 1.5
 25 26 1.0 31 1.5
 26 27 1.5 40 1.5
 27 28 1.5 32 1.0
 28 33 1.0
 29 34 1.5 146 1.0
 30 137 1.0
 31 137 1.0
 32
 33
 34 35 1.5 42 1.0
 35 36 1.5 41 1.0
 36 59 1.5 146 1.0
 37 38 1.5 145 1.0
 38 39 1.5 44 1.0
 39 40 1.5 43 1.0
 40 145 1.0
 41
 42
 43
 44
 45 46 1.0 50 1.5 51 1.5
 46 47 1.0 52 1.5
 47 48 1.0 53 1.5
 48 49 1.5 62 1.5
 49 50 1.5 54 1.0
 50 55 1.0
 51 56 1.5 148 1.0
 52 138 1.0
 53 138 1.0
 54
 55
 56 57 1.5 64 1.0
 57 58 1.5 63 1.0
 58 81 1.5 148 1.0
 59 60 1.5 147 1.0
 60 61 1.5 66 1.0
 61 62 1.5 65 1.0
 62 147 1.0
 63
 64
 65
 66
 67 68 1.0 72 1.5 73 1.5
 68 69 1.0 74 1.5
 69 70 1.0 75 1.5
 70 71 1.5 84 1.5
 71 72 1.5 76 1.0
 72 77 1.0
 73 78 1.5 150 1.0
 74 139 1.0
 75 139 1.0
 76
 77
 78 79 1.5 87 1.0
 79 80 1.5 86 1.0
 80 127 1.5 150 1.0
 81 82 1.5 149 1.0
 82 83 1.5 89 1.0
 83 84 1.5 88 1.0
 84 149 1.0
 85 126 1.0
 86
 87
 88
 89
 90 91 1.0 95 1.5 96 1.5
 91 92 1.0 97 1.5
 92 93 1.0 98 1.5
 93 94 1.5 107 1.0
 94 95 1.5 99 1.0
 95 100 1.0
 96 101 1.5 142 1.0
 97 135 1.0
 98 135 1.0
 99
 100
 101 102 1.5 109 1.0
 102 103 1.5 108 1.0
 103 142 1.0
 104 105 2.0 112 1.0 141 1.0
 105 106 1.5 111 1.0
 106 107 1.5 110 1.0
 107 141 1.0
 108
 109
 110
 111
 112
 113 114 1.0 118 1.5 119 1.0
 114 115 1.0 120 1.5
 115 116 1.0 121 1.5
 116 117 1.5 130 1.5
 117 118 1.5 122 1.0
 118 123 1.0
 119 124 1.5 152 1.0
 120 140 1.0
 121 140 1.0
 122
 123
 124 125 1.5 132 1.0
 125 126 2.0 131 1.0
 126 152 1.0
 127 128 1.5 151 1.0
 128 129 1.5 134 1.0
 129 130 1.5 133 1.0
 130 151 1.0
 131
 132
 133
 134
 135
 136
 137
 138
 139
 140
 141
 142
 143
 144
 145
 146
 147
 148
 149
 150
 151
 152

