%mem=400MW
%chk=A-SeSSe6uv.chk
# td=(nstates=6,root=1) b3lyp/lanl2dz geom=connectivity

A-SeSSe6uv

0 1
 C                -17.28731100   -0.55588600   -0.29007500
 C                -18.03843300    0.67726900   -0.14205200
 C                -19.51610200    0.68001800   -0.10587400
 C                -20.27801100   -0.55016900   -0.21860300
 C                -19.49852400   -1.71140600   -0.36541800
 C                -18.07722300   -1.71414800   -0.39933100
 C                -15.83411300   -0.58194100   -0.31648900
 N                -17.46954700    1.89223700   -0.02567100
 N                -20.07431300    1.89701900    0.03852000
 H                -19.99659400   -2.67332500   -0.45756400
 H                -17.58773300   -2.67790800   -0.51537900
 C                -15.02631200   -1.71759100   -0.43986400
 C                -13.62056200   -1.50747400   -0.43575500
 C                -13.19711000   -0.18076500   -0.30986100
 C                -24.36299800   -0.16009900   -0.03841500
 C                -23.95203800   -1.48560900   -0.20694600
 C                -22.54870800   -1.70092700   -0.28080900
 C                -21.73113500   -0.57047500   -0.17809200
 H                -12.91836200   -2.33358800   -0.53035500
 H                -15.44421100   -2.71643500   -0.53405300
 H                -22.14028700   -2.69981100   -0.41007400
 H                -24.66112600   -2.30810900   -0.27769200
 C                 -4.76415400    0.66521500   -0.14051200
 C                 -5.52607400   -0.56958600   -0.17803200
 C                 -7.00399000   -0.56272200   -0.20580500
 C                 -7.75513400    0.67904900   -0.19273100
 C                 -6.96522400    1.84204700   -0.15622300
 C                 -5.54394800    1.83551900   -0.13110400
 C                 -3.31096100    0.68081800   -0.11587400
 N                 -4.96743000   -1.79450900   -0.19124200
 N                 -7.57323500   -1.78241600   -0.24216200
 H                 -7.45503900    2.81250600   -0.14630700
 H                 -5.04579900    2.80144300   -0.10168500
 C                 -2.49311800    1.81604000   -0.10000600
 C                 -1.08958700    1.59416900   -0.07192700
 C                 -0.67803700    0.25785000   -0.06112000
 C                -11.84503900    0.31075600   -0.27227900
 C                -11.42143800    1.64189900   -0.21099800
 C                -10.01582200    1.85019900   -0.18076400
 C                 -9.20820900    0.70822700   -0.21288400
 H                 -0.38024400    2.41926000   -0.05461500
 H                 -2.90216600    2.82283500   -0.10874500
 H                 -9.60405900    2.85599300   -0.13412000
 H                -12.13145500    2.47678100   -0.19253400
 C                  7.75332800   -0.66763000   -0.01327000
 C                  7.00205000    0.57265900   -0.09581300
 C                  5.52289800    0.57971300   -0.09316100
 C                  4.75976500   -0.65336000   -0.01006500
 C                  5.53972800   -1.82222600    0.06840200
 C                  6.96217400   -1.82894500    0.06687400
 C                  9.20749800   -0.69691400   -0.01432000
 N                  7.57220400    1.79079800   -0.17924900
 N                  4.96422200    1.80320200   -0.17366200
 H                  5.04072600   -2.78670900    0.13524100
 H                  7.45199300   -2.79817000    0.13162000
 C                 10.01562000   -1.83732300    0.06949400
 C                 11.42242100   -1.62931300    0.04625100
 C                 11.84679500   -0.29994700   -0.05939800
 C                  0.67015200   -0.24497600   -0.03323900
 C                  1.08153700   -1.58048300    0.03766000
 C                  2.48626900   -1.80268400    0.05049200
 C                  3.30535200   -0.66870000   -0.01047000
 H                 12.12475700   -2.45949800    0.10646300
 H                  9.59695600   -2.83818900    0.14906000
 H                  2.89518500   -2.80889600    0.10531400
 H                  0.37108900   -2.40448600    0.08583900
 C                 20.28674200    0.55393900   -0.10411200
 C                 19.52498100   -0.67877200   -0.00533700
 C                 18.04577500   -0.67436900   -0.01781600
 C                 17.29320000    0.56309000   -0.12934100
 C                 18.08316400    1.72392700   -0.22415800
 C                 19.50566400    1.71956800   -0.21222500
 C                 21.74128800    0.57232600   -0.08878900
 N                 20.08507300   -1.89955600    0.10366200
 N                 17.47663800   -1.89175100    0.08165600
 H                 17.59250100    2.69108300   -0.31102500
 H                 20.00362800    2.68374800   -0.29100900
 C                 22.55869800    1.70567800   -0.17506100
 C                 23.96387900    1.48721100   -0.13434000
 C                 24.37667500    0.15611100   -0.01195000
 C                 13.19981800    0.19095100   -0.10495900
 C                 13.62346900    1.51952900   -0.22326200
 C                 15.03014100    1.72880400   -0.24089300
 C                 15.83893000    0.59038600   -0.13863700
 H                 37.89513800    0.01119200    0.36115900
 H                 24.67310000    2.31152700   -0.19598900
 H                 22.14883700    2.70870800   -0.26807900
 H                 15.44807000    2.72905900   -0.32958100
 H                 12.92060700    2.34810100   -0.29857800
 C                -29.81537000    0.72383400    0.28629100
 C                -30.57726900   -0.50897600    0.18533500
 C                -32.05553600   -0.51122200    0.24931800
 C                -32.80656600    0.72009200    0.41465400
 C                -32.01905200    1.87800800    0.50629600
 C                -30.59432400    1.88143900    0.44525800
 C                -28.36016400    0.74614800    0.22747300
 N                -30.01649300   -1.72372000    0.03032100
 N                -32.62192200   -1.73013600    0.14312100
 H                -32.50926100    2.84091100    0.63218700
 H                -30.09872100    2.84629700    0.52889300
 C                -27.54348200    1.87818600    0.31915700
 C                -26.13894200    1.66437700    0.23663100
 C                -25.72765500    0.33802800    0.07114000
 C                -36.87370700    0.34058400    0.54760200
 C                -36.48670400    1.66280800    0.66904100
 C                -35.06701100    1.88099300    0.63192200
 C                -34.26763900    0.74806700    0.48016500
 H                -25.42999100    2.48867300    0.29980000
 H                -27.95240400    2.87775000    0.44793900
 H                -34.64948000    2.88198500    0.71828900
 H                -37.19842200    2.47789000    0.78362900
 H                -37.88759400   -0.04510500    0.54990700
 C                 32.81037700   -0.74036200    0.26975300
 C                 32.05775100    0.49715600    0.16904300
 C                 30.57855900    0.49825800    0.12864800
 C                 29.81725500   -0.73744400    0.18970100
 C                 30.59771100   -1.90108100    0.28629400
 C                 32.02342700   -1.90079100    0.32460600
 C                 34.27233100   -0.77263100    0.31078400
 N                 32.62313800    1.71942500    0.10534800
 N                 30.01671400    1.71900100    0.03355600
 H                 30.10272000   -2.86834500    0.33628700
 H                 32.51491000   -2.86831300    0.40152300
 C                 35.07191800   -1.91239900    0.39953100
 C                 36.49252500   -1.69830200    0.42480200
 C                 36.88025300   -0.37242600    0.35682100
 C                 25.72626000   -0.34389600    0.05656300
 C                 26.13992000   -1.67571000    0.16412000
 C                 27.54572800   -1.89221500    0.21532600
 C                 28.36113800   -0.75723200    0.15415700
 H                 37.20437200   -2.51862000    0.49199900
 H                 34.65368700   -2.91551600    0.44695200
 H                 27.95670900   -2.89580600    0.29881600
 H                 25.43180700   -2.50196400    0.20609000
 Se               -35.38583500   -0.83770500    0.36154600
 Se               -27.26908200   -0.84192700    0.00465000
 Se               -22.83748900    1.01989300    0.04101900
 Se               -14.73850300    1.00660800   -0.17176500
 Se               -10.32066000   -0.88120200   -0.29047600
 Se                -2.22093900   -0.92019600   -0.09753500
 Se                 2.21391400    0.93252500   -0.10000200
 Se                10.31440300    0.89150400   -0.13996700
 Se                14.73297900   -0.99769400    0.00017400
 Se                22.83490900   -1.02293100    0.06516700
 Se                27.26691000    0.83798700    0.01123600
 Se                35.39170900    0.81514500    0.24606800
 S                -31.32285300   -2.91969500   -0.04132800
 S                -18.77938500    3.09307800    0.13324200
 S                 -6.27938100   -2.98931200   -0.24082200
 S                  6.27380000    2.99620300   -0.25661500
 S                 18.77654400   -3.09259600    0.19398900
 S                 31.32249200    2.91712100   -0.00845500

 1 2 1.0 6 1.5 7 1.0
 2 3 1.0 8 1.5
 3 4 1.0 9 1.5
 4 5 1.5 18 1.0
 5 6 1.5 10 1.0
 6 11 1.0
 7 12 1.5 138 1.0
 8 148 1.0
 9 148 1.0
 10
 11
 12 13 1.5 20 1.0
 13 14 1.5 19 1.0
 14 37 1.5 138 1.0
 15 16 1.5 103 1.0 137 1.0
 16 17 1.5 22 1.0
 17 18 1.5 21 1.0
 18 137 1.0
 19
 20
 21
 22
 23 24 1.0 28 1.5 29 1.0
 24 25 1.0 30 1.5
 25 26 1.0 31 1.5
 26 27 1.5 40 1.0
 27 28 1.5 32 1.0
 28 33 1.0
 29 34 1.5 140 1.0
 30 149 1.0
 31 149 1.0
 32
 33
 34 35 1.5 42 1.0
 35 36 1.5 41 1.0
 36 59 1.5 140 1.0
 37 38 1.5 139 1.0
 38 39 1.5 44 1.0
 39 40 1.5 43 1.0
 40 139 1.0
 41
 42
 43
 44
 45 46 1.0 50 1.5 51 1.0
 46 47 1.0 52 1.5
 47 48 1.0 53 1.5
 48 49 1.5 62 1.0
 49 50 1.5 54 1.0
 50 55 1.0
 51 56 1.5 142 1.0
 52 150 1.0
 53 150 1.0
 54
 55
 56 57 1.5 64 1.0
 57 58 1.5 63 1.0
 58 81 1.5 142 1.0
 59 60 1.5 141 1.0
 60 61 1.5 66 1.0
 61 62 1.5 65 1.0
 62 141 1.0
 63
 64
 65
 66
 67 68 1.0 72 1.5 73 1.0
 68 69 1.0 74 1.5
 69 70 1.0 75 1.5
 70 71 1.5 84 1.0
 71 72 1.5 76 1.0
 72 77 1.0
 73 78 1.5 144 1.0
 74 151 1.0
 75 151 1.0
 76
 77
 78 79 1.5 87 1.0
 79 80 1.5 86 1.0
 80 127 1.5 144 1.0
 81 82 1.5 143 1.0
 82 83 1.5 89 1.0
 83 84 1.5 88 1.0
 84 143 1.0
 85 126 1.0
 86
 87
 88
 89
 90 91 1.0 95 1.5 96 1.0
 91 92 1.0 97 1.5
 92 93 1.0 98 1.5
 93 94 1.5 107 1.0
 94 95 1.5 99 1.0
 95 100 1.0
 96 101 1.5 136 1.0
 97 147 1.0
 98 147 1.0
 99
 100
 101 102 1.5 109 1.0
 102 103 1.5 108 1.0
 103 136 1.0
 104 105 2.0 112 1.0 135 1.0
 105 106 1.5 111 1.0
 106 107 1.5 110 1.0
 107 135 1.0
 108
 109
 110
 111
 112
 113 114 1.0 118 1.5 119 1.0
 114 115 1.0 120 1.5
 115 116 1.0 121 1.5
 116 117 1.5 130 1.0
 117 118 1.5 122 1.0
 118 123 1.0
 119 124 1.5 146 1.0
 120 152 1.0
 121 152 1.0
 122
 123
 124 125 1.5 132 1.0
 125 126 2.0 131 1.0
 126 146 1.0
 127 128 1.5 145 1.0
 128 129 1.5 134 1.0
 129 130 1.5 133 1.0
 130 145 1.0
 131
 132
 133
 134
 135
 136
 137
 138
 139
 140
 141
 142
 143
 144
 145
 146
 147
 148
 149
 150
 151
 152

