%mem=500MW
%chk=A-SeOSe6uv.chk
# td=(nstates=10) b3lyp/lanl2dz geom=connectivity

A-SeOSe6uv

0 1
 C                -17.12950500    1.13713300    0.04521300
 C                -17.89882200    2.36422000   -0.00877700
 C                -19.35720800    2.36141000   -0.05664700
 C                -20.12416800    1.13134900   -0.05319000
 C                -19.33689900   -0.02683000   -0.00116900
 C                -17.91418500   -0.02394400    0.04569100
 C                -15.68062600    1.12609500    0.09385400
 N                -17.45306500    3.63384900   -0.02318500
 N                -19.80571500    3.62939600   -0.10054700
 H                -19.82723300   -0.99734900    0.00547400
 H                -17.42164200   -0.99264900    0.08364300
 C                -14.80863200    2.21300200    0.08925600
 C                -13.41845800    1.90661900    0.14273300
 C                -13.07810400    0.55703500    0.19493400
 C                -24.17540600    0.54017800   -0.16066500
 C                -23.83599400    1.89070100   -0.17778900
 C                -22.44605000    2.20051700   -0.14457500
 C                -21.57297600    1.11562300   -0.09771000
 H                -12.66385800    2.68842200    0.14349300
 H                -15.17747500    3.23133200    0.04694900
 H                -22.07824300    3.22002400   -0.15431100
 H                -24.59145800    2.67093000   -0.21536100
 C                 -4.72740700   -0.71604000    0.41042500
 C                 -5.51834300   -1.93020700    0.45369100
 C                 -6.97674400   -1.90473100    0.43216400
 C                 -7.72303700   -0.66347600    0.36645600
 C                 -6.91596900    0.48204200    0.33104700
 C                 -5.49228500    0.45705500    0.35193000
 C                 -3.27785700   -0.73335100    0.42138500
 N                 -5.09418500   -3.20597100    0.51560200
 N                 -7.44675500   -3.16495300    0.48109400
 H                 -7.39037400    1.45941900    0.28192600
 H                 -4.98258100    1.41724600    0.31691700
 C                 -2.43270100   -1.84026400    0.47265000
 C                 -1.03530100   -1.56815900    0.46288700
 C                 -0.66012200   -0.22809900    0.40391000
 C                -11.77053400   -0.03808200    0.25332300
 C                -11.44143400   -1.39004300    0.31938600
 C                -10.05494900   -1.70876500    0.36430000
 C                 -9.17204400   -0.63074200    0.33716300
 H                 -0.30051600   -2.36769900    0.50214900
 H                 -2.82707500   -2.84872600    0.51670600
 H                 -9.69616300   -2.73001400    0.41656900
 H                -12.20305900   -2.16497800    0.33642300
 C                  7.72605100    0.74343500    0.15717900
 C                  6.98416800    1.98865500    0.18270900
 C                  5.52651700    2.01982300    0.23278300
 C                  4.73203300    0.80774100    0.26029200
 C                  5.49293700   -0.36906400    0.23712400
 C                  6.91567600   -0.39958600    0.18796400
 C                  9.17416000    0.70332500    0.10424000
 N                  7.45806800    3.24807700    0.16625200
 N                  5.10669200    3.29835500    0.24688900
 H                  4.98056100   -1.32805900    0.25570000
 H                  7.38679000   -1.37955300    0.17365600
 C                 10.06222000    1.77701200    0.07799100
 C                 11.44660500    1.44952000    0.02681200
 C                 11.76834700    0.09439000    0.00732500
 C                  0.66552900    0.32781300    0.37407000
 C                  1.04248400    1.66857300    0.35818400
 C                  2.44000200    1.93866900    0.32134400
 C                  3.28314800    0.82916300    0.30385100
 H                 12.21201300    2.22052100    0.00264800
 H                  9.70876900    2.80134100    0.09587900
 H                  2.83582900    2.94741400    0.30698500
 H                  0.30904800    2.47019600    0.37564100
 C                 20.11541000   -1.15022400   -0.19686900
 C                 19.33702000   -2.37291900   -0.20808500
 C                 17.87802900   -2.36187900   -0.18393800
 C                 17.11943600   -1.12741800   -0.14728100
 C                 17.91502500    0.02636300   -0.14175800
 C                 19.33828500    0.01560100   -0.16535600
 C                 21.56493400   -1.14831000   -0.21342500
 N                 19.77434200   -3.64523900   -0.23987700
 N                 17.42082000   -3.62747500   -0.20029900
 H                 17.43091600    0.99975400   -0.11643700
 H                 19.83752100    0.98162600   -0.15593600
 C                 22.42890400   -2.24123600   -0.23889500
 C                 23.82219000   -1.94415500   -0.24513900
 C                 24.17326800   -0.59665900   -0.22591700
 C                 13.07177200   -0.51074500   -0.04070900
 C                 13.40111300   -1.86350200   -0.08101300
 C                 14.78885700   -2.18210800   -0.12120900
 C                 15.67026100   -1.10271600   -0.11593000
 H                 37.56475600   -0.34379100   -0.02437100
 H                 24.57117900   -2.73116700   -0.26598500
 H                 22.05208600   -3.25737200   -0.25281200
 H                 15.14916700   -3.20376100   -0.15409900
 H                 12.63974200   -2.63885100   -0.08312800
 C                -29.53593300   -0.66685700   -0.24749800
 C                -30.29086900   -1.90404200   -0.24953500
 C                -31.74973000   -1.91954000   -0.26952500
 C                -32.53175800   -0.69985700   -0.28876500
 C                -31.75994200    0.46632800   -0.28772200
 C                -30.33377700    0.48276300   -0.26803300
 C                -28.08491700   -0.64147700   -0.22447800
 N                -29.82993700   -3.16828400   -0.23447100
 N                -32.18326400   -3.19426100   -0.26664000
 H                -32.26281300    1.43034300   -0.30195400
 H                -29.85325100    1.45827200   -0.26881900
 C                -27.20738400   -1.72262100   -0.20341500
 C                -25.81830400   -1.40740500   -0.18118400
 C                -25.48438400   -0.05568200   -0.18317000
 C                -36.57017800   -0.17470600   -0.33999000
 C                -36.24519500   -1.51334900   -0.32525700
 C                -34.83815300   -1.80571300   -0.30674200
 C                -33.98754400   -0.70729000   -0.30643000
 H                -25.05973300   -2.18537600   -0.16438600
 H                -27.57060800   -2.74373900   -0.20378800
 H                -34.45561800   -2.81984300   -0.29387700
 H                -36.99921900   -2.29432400   -0.32693200
 H                -37.55808300    0.26640900   -0.35483600
 C                 32.53741400    0.61773600   -0.13026300
 C                 31.75631000    1.83789400   -0.15881700
 C                 30.29755800    1.82356500   -0.18302200
 C                 29.54133900    0.58687500   -0.17977300
 C                 30.33822300   -0.56344700   -0.15322500
 C                 31.76466100   -0.54798200   -0.12969500
 C                 33.99325100    0.62571500   -0.10400500
 N                 32.19101900    3.11233000   -0.16734800
 N                 29.83792000    3.08826700   -0.20642300
 H                 29.85673800   -1.53860600   -0.14881200
 H                 32.26686200   -1.51237300   -0.10957000
 C                 34.84296700    1.72508100   -0.10422400
 C                 36.25015500    1.43429300   -0.07434600
 C                 36.57637800    0.09601700   -0.04889700
 C                 25.48651300   -0.00993300   -0.22282100
 C                 25.82664900    1.34006800   -0.23505200
 C                 27.21684800    1.64929500   -0.22306800
 C                 28.09011500    0.56463500   -0.19981500
 H                 37.00334500    2.21609900   -0.07181000
 H                 34.45961100    2.73874700   -0.12581800
 H                 27.58428200    2.66876100   -0.23132500
 H                 25.07146300    2.12119600   -0.25482500
 O                -30.99808500   -3.98172500   -0.24499300
 O                -18.63040600    4.43260600   -0.08034600
 O                 -6.28507400   -3.98575700    0.53330300
 O                  6.29949900    4.07419100    0.20582200
 O                 18.59139900   -4.43735500   -0.23531100
 O                 31.00669500    3.90071600   -0.19691000
 Se               -35.02417400    0.93566000   -0.33189500
 Se               -27.09051500    1.02304700   -0.21676500
 Se               -22.57484500   -0.54454000   -0.09373400
 Se               -14.67800900   -0.53095300    0.17703500
 Se               -10.16040600    1.03555600    0.24332600
 Se                -2.23279800    0.89846300    0.35113900
 Se                 2.23603100   -0.80235100    0.33869000
 Se                10.15327000   -0.97030300    0.05940600
 Se                14.68109800    0.56344600   -0.05204700
 Se                22.58132300    0.50251900   -0.19440100
 Se                27.08828500   -1.09573400   -0.19177200
 Se                35.03135700   -1.01601300   -0.06098400

 1 2 1.0 6 1.5 7 1.0
 2 3 1.0 8 1.5
 3 4 1.0 9 1.5
 4 5 1.5 18 1.0
 5 6 1.5 10 1.0
 6 11 1.0
 7 12 1.5 144 1.0
 8 136 1.0
 9 136 1.0
 10
 11
 12 13 1.5 20 1.0
 13 14 1.5 19 1.0
 14 37 1.5 144 1.0
 15 16 1.5 103 1.5 143 1.0
 16 17 1.5 22 1.0
 17 18 1.5 21 1.0
 18 143 1.0
 19
 20
 21
 22
 23 24 1.0 28 1.5 29 1.0
 24 25 1.0 30 1.5
 25 26 1.0 31 1.5
 26 27 1.5 40 1.0
 27 28 1.5 32 1.0
 28 33 1.0
 29 34 1.5 146 1.0
 30 137 1.0
 31 137 1.0
 32
 33
 34 35 1.5 42 1.0
 35 36 1.5 41 1.0
 36 59 1.5 146 1.0
 37 38 1.5 145 1.0
 38 39 1.5 44 1.0
 39 40 1.5 43 1.0
 40 145 1.0
 41
 42
 43
 44
 45 46 1.0 50 1.5 51 1.0
 46 47 1.0 52 1.5
 47 48 1.0 53 1.5
 48 49 1.5 62 1.0
 49 50 1.5 54 1.0
 50 55 1.0
 51 56 1.5 148 1.0
 52 138 1.0
 53 138 1.0
 54
 55
 56 57 1.5 64 1.0
 57 58 1.5 63 1.0
 58 81 1.5 148 1.0
 59 60 1.5 147 1.0
 60 61 1.5 66 1.0
 61 62 1.5 65 1.0
 62 147 1.0
 63
 64
 65
 66
 67 68 1.0 72 1.5 73 1.0
 68 69 1.0 74 1.5
 69 70 1.0 75 1.5
 70 71 1.5 84 1.0
 71 72 1.5 76 1.0
 72 77 1.0
 73 78 1.5 150 1.0
 74 139 1.0
 75 139 1.0
 76
 77
 78 79 1.5 87 1.0
 79 80 1.5 86 1.0
 80 127 1.5 150 1.0
 81 82 1.5 149 1.0
 82 83 1.5 89 1.0
 83 84 1.5 88 1.0
 84 149 1.0
 85 126 1.0
 86
 87
 88
 89
 90 91 1.0 95 1.5 96 1.0
 91 92 1.0 97 1.5
 92 93 1.0 98 1.5
 93 94 1.5 107 1.0
 94 95 1.5 99 1.0
 95 100 1.0
 96 101 1.5 142 1.0
 97 135 1.0
 98 135 1.0
 99
 100
 101 102 1.5 109 1.0
 102 103 1.5 108 1.0
 103 142 1.0
 104 105 2.0 112 1.0 141 1.0
 105 106 1.5 111 1.0
 106 107 1.5 110 1.0
 107 141 1.0
 108
 109
 110
 111
 112
 113 114 1.0 118 1.5 119 1.0
 114 115 1.0 120 1.5
 115 116 1.0 121 1.5
 116 117 1.5 130 1.0
 117 118 1.5 122 1.0
 118 123 1.0
 119 124 1.5 152 1.0
 120 140 1.0
 121 140 1.0
 122
 123
 124 125 1.5 132 1.0
 125 126 2.0 131 1.0
 126 152 1.0
 127 128 1.5 151 1.0
 128 129 1.5 134 1.0
 129 130 1.5 133 1.0
 130 151 1.0
 131
 132
 133
 134
 135
 136
 137
 138
 139
 140
 141
 142
 143
 144
 145
 146
 147
 148
 149
 150
 151
 152

