%mem=400MW
%chk=A-SeTeSe6uv.chk
# td=(nstates=10) b3lyp/lanl2dz geom=connectivity

A-SeTeSe6uv

0 1
 C                -17.27973000   -0.41439300   -0.27744200
 C                -18.00466800    0.83809200   -0.10397600
 C                -19.49731800    0.85061200   -0.03422600
 C                -20.25626600   -0.38888100   -0.14203400
 C                -19.49280000   -1.55237200   -0.31208700
 C                -18.07528800   -1.56460200   -0.37635800
 C                -15.82976600   -0.45756100   -0.33840800
 N                -17.36238600    2.01059200   -0.00055000
 N                -20.10722900    2.03360200    0.12919000
 H                -19.99950500   -2.50863900   -0.39968500
 H                -17.59492000   -2.52920600   -0.50906600
 C                -15.03963300   -1.60072200   -0.48720600
 C                -13.63334800   -1.41011700   -0.51734900
 C                -13.18916700   -0.09174700   -0.39623700
 C                -24.33473200    0.00312400    0.11423500
 C                -23.92765900   -1.31868000   -0.07474200
 C                -22.52764900   -1.53319000   -0.17465400
 C                -21.70679600   -0.40674900   -0.07516300
 H                -12.94646500   -2.24442200   -0.63386500
 H                -15.47223300   -2.59218000   -0.57596800
 H                -22.12309700   -2.52951900   -0.32141500
 H                -24.63687800   -2.13956600   -0.14161400
 C                 -4.76031600    0.67084400   -0.41742800
 C                 -5.51492900   -0.57581700   -0.44226800
 C                 -7.00923100   -0.56176300   -0.43943700
 C                 -7.73965900    0.69901300   -0.40795900
 C                 -6.94815200    1.85629200   -0.38781800
 C                 -5.52955200    1.84295700   -0.39217200
 C                 -3.30875000    0.68740400   -0.41632900
 N                 -4.89924500   -1.76674500   -0.46805900
 N                 -7.64750700   -1.74082800   -0.46487100
 H                 -7.43320200    2.82740400   -0.36653300
 H                 -5.02615900    2.80473400   -0.37170200
 C                 -2.49269900    1.82213500   -0.40914600
 C                 -1.09019800    1.60454900   -0.39796400
 C                 -0.67509400    0.27115900   -0.39353300
 C                -11.83212200    0.37906400   -0.39116600
 C                -11.39056000    1.70286900   -0.33965600
 C                 -9.98403600    1.89295000   -0.34294100
 C                 -9.19058500    0.74355100   -0.39458800
 H                 -0.38439000    2.43100500   -0.38712700
 H                 -2.90351300    2.82672600   -0.41060800
 H                 -9.55354200    2.88857700   -0.30599300
 H                -12.07991900    2.54244100   -0.30462500
 C                  7.73605700   -0.65882500   -0.30651500
 C                  7.00729300    0.60030200   -0.39351600
 C                  5.51304400    0.61534100   -0.40995500
 C                  4.75691700   -0.62876600   -0.34138400
 C                  5.52465100   -1.79947800   -0.26235000
 C                  6.94309000   -1.81371300   -0.24590000
 C                  9.18682900   -0.70429600   -0.28276400
 N                  7.64704500    1.77691900   -0.46033400
 N                  4.89889800    1.80471200   -0.48937600
 H                  5.02011200   -2.75929400   -0.20730900
 H                  7.42680700   -2.78355400   -0.18103500
 C                  9.97829900   -1.85264500   -0.19161600
 C                 11.38491200   -1.66412900   -0.18468900
 C                 11.82873600   -0.34286600   -0.27129900
 C                  0.67192300   -0.22699700   -0.37543600
 C                  1.08615400   -1.55937900   -0.31756500
 C                  2.48848000   -1.77763400   -0.30491500
 C                  3.30539000   -0.64451100   -0.35274200
 H                 12.07279000   -2.50294300   -0.11729000
 H                  9.54620100   -2.84616400   -0.12782400
 H                  2.89848800   -2.78147300   -0.25856300
 H                  0.37962200   -2.38434800   -0.27791800
 C                 20.25658300    0.39656300   -0.08579600
 C                 19.49452900   -0.84243300    0.00414700
 C                 18.00142800   -0.82383700   -0.05100500
 C                 17.27906700    0.43404900   -0.19359500
 C                 18.07744300    1.58365500   -0.27573500
 C                 19.49545600    1.56574200   -0.22471100
 C                 21.70773000    0.40808500   -0.03277400
 N                 20.10201100   -2.03037100    0.13781500
 N                 17.35624900   -1.99612200    0.03560400
 H                 17.59896900    2.55227100   -0.38387500
 H                 20.00458800    2.52196100   -0.29778500
 C                 22.53178000    1.53377100   -0.11147500
 C                 23.93202700    1.31153300   -0.03369900
 C                 24.33597100   -0.01648800    0.11422600
 C                 13.18675400    0.12480000   -0.28208100
 C                 13.63388100    1.44306800   -0.39371800
 C                 15.04093700    1.62932800   -0.37304000
 C                 15.82888100    0.48230500   -0.24328100
 H                 37.82243100   -0.33570600    0.80980500
 H                 24.64387500    2.13108800   -0.08778700
 H                 22.12933600    2.53505300   -0.22674400
 H                 15.47578100    2.62045700   -0.45441300
 H                 12.94858700    2.28086800   -0.49265900
 C                -29.75579100    0.89230800    0.53147500
 C                -30.51846700   -0.34612200    0.42429200
 C                -32.01087800   -0.33335900    0.51314900
 C                -32.73077100    0.91792600    0.70721300
 C                -31.93480400    2.06329100    0.80021600
 C                -30.51459500    2.05292900    0.71671400
 C                -28.30420300    0.90830300    0.45119900
 N                -29.91065900   -1.52707000    0.24508800
 N                -32.65371500   -1.50663500    0.40837700
 H                -32.41237400    3.02753200    0.94498100
 H                -30.00817200    3.00935100    0.80402100
 C                -27.48289900    2.03334100    0.54742900
 C                -26.08303600    1.81864300    0.44142500
 C                -25.67771000    0.49643500    0.25050900
 C                -36.79700100    0.61256700    0.90107400
 C                -36.38285800    1.92091400    1.04088000
 C                -34.96228300    2.11185200    0.98448200
 C                -34.18776000    0.97018900    0.79851100
 H                -25.37316200    2.63885700    0.50677600
 H                -27.88608200    3.02998200    0.69728800
 H                -34.52525500    3.10058700    1.08322700
 H                -37.07345800    2.74717100    1.18272300
 H                -37.81693700    0.24872900    0.91365000
 C                 32.73291900   -0.98029400    0.60696200
 C                 32.01577600    0.28051900    0.47370300
 C                 30.52289200    0.30142400    0.39540400
 C                 29.75693400   -0.93821700    0.45384000
 C                 30.51323000   -2.10814600    0.58198700
 C                 31.93394100   -2.12633800    0.65464000
 C                 34.19035400   -1.04083400    0.68549100
 N                 32.66164200    1.45538500    0.41661500
 N                 29.91763800    1.49087700    0.27217700
 H                 30.00428400   -3.06599000    0.63043200
 H                 32.40942400   -3.09742700    0.75315700
 C                 34.96248600   -2.19182000    0.81364700
 C                 36.38399100   -2.00810600    0.86932300
 C                 36.80130100   -0.69547600    0.78729500
 C                 25.67831400   -0.51882700    0.22064500
 C                 26.08059600   -1.84859700    0.35479800
 C                 27.48043400   -2.07210800    0.44114400
 C                 28.30473800   -0.94636400    0.38455100
 H                 37.07293500   -2.84178300    0.96820700
 H                 34.52307100   -3.18301400    0.86967100
 H                 27.88147800   -3.07507300    0.54695400
 H                 25.36843200   -2.66881300    0.39109200
 Te               -31.30475500   -2.99202600    0.15004100
 Te               -18.71468300    3.49984400    0.23090900
 Te                -6.28726300   -3.24063900   -0.49852400
 Te                 6.28889100    3.27510400   -0.56763700
 Te                18.70573300   -3.49395000    0.22433700
 Te                31.31571800    2.95454400    0.23244700
 Se                35.34156000    0.51920400    0.62130900
 Se                27.22867000    0.65154800    0.19682600
 Se                22.78649000   -1.18702900    0.16679900
 Se                14.69889400   -1.08533400   -0.12798900
 Se                10.31273600    0.86791000   -0.37521700
 Se                 2.21461600    0.95290600   -0.43163100
 Se                -2.21681700   -0.91113400   -0.41554800
 Se               -10.31405500   -0.83232700   -0.44569100
 Se               -14.70325500    1.11187100   -0.21317100
 Se               -22.78907800    1.17826800    0.17815700
 Se               -27.22473200   -0.67689200    0.18945600
 Se               -35.33493400   -0.58884400    0.66968100

 1 2 1.0 6 1.5 7 1.0
 2 3 1.0 8 1.5
 3 4 1.0 9 1.5
 4 5 1.5 18 1.0
 5 6 1.5 10 1.0
 6 11 1.0
 7 12 1.5 149 1.0
 8 136 1.0
 9 136 1.0
 10
 11
 12 13 1.5 20 1.0
 13 14 1.5 19 1.0
 14 37 1.5 149 1.0
 15 16 1.5 103 1.5 150 1.0
 16 17 1.5 22 1.0
 17 18 1.5 21 1.0
 18 150 1.0
 19
 20
 21
 22
 23 24 1.0 28 1.5 29 1.0
 24 25 1.0 30 1.5
 25 26 1.0 31 1.5
 26 27 1.5 40 1.0
 27 28 1.5 32 1.0
 28 33 1.0
 29 34 1.5 147 1.0
 30 137 1.0
 31 137 1.0
 32
 33
 34 35 1.5 42 1.0
 35 36 1.5 41 1.0
 36 59 1.5 147 1.0
 37 38 1.5 148 1.0
 38 39 1.5 44 1.0
 39 40 1.5 43 1.0
 40 148 1.0
 41
 42
 43
 44
 45 46 1.0 50 1.5 51 1.0
 46 47 1.0 52 1.5
 47 48 1.0 53 1.5
 48 49 1.5 62 1.0
 49 50 1.5 54 1.0
 50 55 1.0
 51 56 1.5 145 1.0
 52 138 1.0
 53 138 1.0
 54
 55
 56 57 1.5 64 1.0
 57 58 1.5 63 1.0
 58 81 1.5 145 1.0
 59 60 1.5 146 1.0
 60 61 1.5 66 1.0
 61 62 1.5 65 1.0
 62 146 1.0
 63
 64
 65
 66
 67 68 1.0 72 1.5 73 1.0
 68 69 1.0 74 1.5
 69 70 1.0 75 1.5
 70 71 1.5 84 1.0
 71 72 1.5 76 1.0
 72 77 1.0
 73 78 1.5 143 1.0
 74 139 1.0
 75 139 1.0
 76
 77
 78 79 1.5 87 1.0
 79 80 1.5 86 1.0
 80 127 1.5 143 1.0
 81 82 1.5 144 1.0
 82 83 1.5 89 1.0
 83 84 1.5 88 1.0
 84 144 1.0
 85 126 1.0
 86
 87
 88
 89
 90 91 1.0 95 1.5 96 1.0
 91 92 1.0 97 1.5
 92 93 1.0 98 1.5
 93 94 1.5 107 1.0
 94 95 1.5 99 1.0
 95 100 1.0
 96 101 1.5 151 1.0
 97 135 1.0
 98 135 1.0
 99
 100
 101 102 1.5 109 1.0
 102 103 1.5 108 1.0
 103 151 1.0
 104 105 2.0 112 1.0 152 1.0
 105 106 1.5 111 1.0
 106 107 1.5 110 1.0
 107 152 1.0
 108
 109
 110
 111
 112
 113 114 1.0 118 1.5 119 1.0
 114 115 1.0 120 1.5
 115 116 1.0 121 1.5
 116 117 1.5 130 1.0
 117 118 1.5 122 1.0
 118 123 1.0
 119 124 1.5 141 1.0
 120 140 1.0
 121 140 1.0
 122
 123
 124 125 1.5 132 1.0
 125 126 2.0 131 1.0
 126 141 1.0
 127 128 1.5 142 1.0
 128 129 1.5 134 1.0
 129 130 1.5 133 1.0
 130 142 1.0
 131
 132
 133
 134
 135
 136
 137
 138
 139
 140
 141
 142
 143
 144
 145
 146
 147
 148
 149
 150
 151
 152

