%chk=A-SeSeSe6uv.chk
%mem=200MW
# td=(nstates=10) b3lyp/lanl2dz geom=connectivity

A-SeSeSe6uv

0 1
 C                -17.04683800    1.40549400    0.03390700
 C                -17.79139100    2.66364100    0.01467400
 C                -19.28769900    2.66597100   -0.01184300
 C                -20.03702000    1.41059700   -0.01833600
 C                -19.25358900    0.25228300    0.00084000
 C                -17.83459300    0.24999100    0.02544700
 C                -15.59468600    1.35107200    0.05934000
 N                -17.20310100    3.87168100    0.01920900
 N                -19.87152700    3.87621100   -0.02823600
 H                -19.74542700   -0.71756300   -0.00267800
 H                -17.34635800   -0.72169600    0.03837700
 C                -14.67482900    2.39697100    0.06647500
 C                -13.29733200    2.03319900    0.09111400
 C                -13.00888000    0.67119100    0.10601300
 C                -24.07859700    0.69376600   -0.07823300
 C                -23.78355200    2.05416500   -0.07936600
 C                -22.40424500    2.41168200   -0.06006800
 C                -21.48940900    1.36182300   -0.04190600
 H                -12.51136200    2.78373200    0.09823900
 H                -15.01386800    3.42490800    0.05346700
 H                -22.06045100    3.43817000   -0.05940700
 H                -24.56566100    2.80861400   -0.09454200
 C                 -4.69955100   -0.77419300    0.19230500
 C                 -5.46321100   -2.02103400    0.20551500
 C                 -6.95930300   -2.00186500    0.19767100
 C                 -7.68998200   -0.73536800    0.17698400
 C                 -6.88931900    0.41146200    0.16820500
 C                 -5.46999600    0.39312700    0.17554400
 C                 -3.24653400   -0.74437400    0.19393900
 N                 -4.89332800   -3.23794000    0.22425700
 N                 -7.56090600   -3.20333600    0.21018900
 H                 -7.36721800    1.38823900    0.15368300
 H                 -4.96682500    1.35712800    0.16577500
 C                 -2.34751000   -1.80816200    0.20907700
 C                 -0.96347500   -1.47228200    0.20305100
 C                 -0.64692900   -0.11654300    0.18275600
 C                -11.72413700    0.02629600    0.12980700
 C                -11.44257000   -1.33711500    0.15217800
 C                -10.06769900   -1.70838700    0.17050600
 C                 -9.14164400   -0.66790800    0.16446500
 H                 -0.19305300   -2.23868600    0.21415000
 H                 -2.70695200   -2.82896200    0.22421000
 H                 -9.73448400   -2.73797400    0.18861200
 H                -12.23241400   -2.08347200    0.15555700
 C                  7.69988700    1.04281700    0.08525200
 C                  6.98566000    2.31889300    0.08966700
 C                  5.48977000    2.35694200    0.10983100
 C                  4.71061200    1.12004000    0.12447900
 C                  5.46626600   -0.05688900    0.11984700
 C                  6.88466500   -0.09336100    0.10125200
 C                  9.15022800    0.95342900    0.06571700
 N                  7.60265000    3.51241300    0.07736500
 N                  4.93488100    3.58081900    0.11304300
 H                  4.95150700   -1.01472700    0.13047200
 H                  7.34971700   -1.07638100    0.09966000
 C                 10.09423400    1.97749200    0.04978600
 C                 11.46279900    1.58155300    0.03325000
 C                 11.71969500    0.21314000    0.03471000
 C                  0.65437500    0.49453200    0.16973600
 C                  0.97894600    1.84845400    0.16077900
 C                  2.36582800    2.17538600    0.14581200
 C                  3.25748900    1.10524200    0.14121200
 H                 12.26590200    2.31365100    0.02031200
 H                  9.77908500    3.01310500    0.05042100
 H                  2.73198400    3.19400700    0.13782700
 H                  0.21314500    2.61954900    0.16546200
 C                 19.99617400   -1.40216100   -0.05049100
 C                 19.20876200   -2.63422800   -0.03869300
 C                 17.71323300   -2.58622600   -0.02437500
 C                 17.00707900   -1.30607000   -0.02240500
 C                 17.82948500   -0.17492600   -0.03601900
 C                 19.24817500   -0.22046100   -0.04929400
 C                 21.44959000   -1.39911400   -0.06137900
 N                 19.75561400   -3.86163500   -0.03957900
 N                 17.08889100   -3.77620900   -0.01388600
 H                 17.37048400    0.81096400   -0.03597400
 H                 19.76931100    0.73399900   -0.05822300
 C                 22.33011400   -2.47825500   -0.06230400
 C                 23.72016800   -2.16585800   -0.07148200
 C                 24.05928400   -0.81589700   -0.07875400
 C                 12.98957500   -0.46088200    0.02103300
 C                 13.24267200   -1.83000800    0.02310800
 C                 14.60965800   -2.23011900    0.00837300
 C                 15.55698500   -1.20918800   -0.00661600
 H                 37.36135600   -1.12995300   -0.12355100
 H                 24.47748000   -2.94527500   -0.07232500
 H                 21.95337200   -3.49287800   -0.05574700
 H                 14.92172100   -3.26657100    0.00875500
 H                 12.43754600   -2.55987100    0.03569700
 C                -29.40942700   -0.66942000   -0.13461700
 C                -30.15405200   -1.92775900   -0.14906900
 C                -31.65059600   -1.93001800   -0.16294300
 C                -32.39990600   -0.67553700   -0.16132100
 C                -31.61845400    0.48049600   -0.14779600
 C                -30.19658100    0.48432600   -0.13520200
 C                -27.95554500   -0.61661800   -0.12090600
 N                -29.56583100   -3.13564700   -0.15086100
 N                -32.23468200   -3.14110200   -0.17589400
 H                -32.11091800    1.45018800   -0.14649700
 H                -29.70934000    1.45651200   -0.12498800
 C                -27.03928000   -1.66447200   -0.11495800
 C                -25.66025100   -1.30465200   -0.10043200
 C                -25.36764800    0.05600000   -0.09388400
 C                -36.41928100    0.03534900   -0.18278000
 C                -36.15914300   -1.31698700   -0.19825000
 C                -34.76745600   -1.67961700   -0.19227000
 C                -33.85926400   -0.62959500   -0.17190400
 H                -24.87690500   -2.05808200   -0.09477600
 H                -27.38126200   -2.69141100   -0.12214000
 H                -34.42442300   -2.70648900   -0.20255800
 H                -36.95068200   -2.06000900   -0.21346300
 H                -37.38458700    0.52424300   -0.18346200
 Se               -30.89794800   -4.44808800   -0.17210000
 Se               -18.53502400    5.18430000   -0.01161200
 Se                -6.24412000   -4.53102800    0.23545800
 Se                 6.30216600    4.85668900    0.08954700
 Se                18.38064000   -5.12875100   -0.02189400
 C                 32.42382000    0.25229900   -0.11368300
 C                 31.72107800    1.53343300   -0.11625700
 C                 30.22540900    1.58585500   -0.11165600
 C                 29.43491300    0.35575500   -0.10491700
 C                 30.17923200   -0.82606700   -0.10346600
 C                 31.60037600   -0.87422400   -0.10775900
 C                 33.88055200    0.15246700   -0.11790300
 N                 32.34898600    2.72226000   -0.12239500
 N                 29.68157900    2.81445000   -0.11415900
 H                 29.65683300   -1.77982900   -0.09869500
 H                 32.05709500   -1.86113600   -0.10590100
 C                 34.82658500    1.16865100   -0.12385000
 C                 36.20405200    0.75545200   -0.12628800
 C                 36.41479600   -0.60548600   -0.12243300
 C                 25.36980400   -0.22309000   -0.08711100
 C                 25.71058600    1.12623800   -0.09376600
 C                 27.10187300    1.43644000   -0.10049600
 C                 27.97998300    0.35632600   -0.09982600
 H                 37.02214400    1.46937500   -0.13087200
 H                 34.52089900    2.20721000   -0.12649700
 H                 27.48023900    2.45053300   -0.10577300
 H                 24.95444300    1.90686800   -0.09357500
 Se                31.06058600    4.07744000   -0.12302100
 Se               -34.81988000    1.06663500   -0.15732700
 Se               -27.00773800    1.08243800   -0.10681000
 Se               -22.44080200   -0.33556700   -0.04970100
 Se               -14.65167700   -0.35035700    0.08769600
 Se               -10.07569500    1.03923500    0.13121900
 Se                -2.26875900    0.93827500    0.16869900
 Se                 2.26925700   -0.57038500    0.15872100
 Se                10.05344800   -0.76985800    0.05951300
 Se                22.45587700    0.26639800   -0.07436000
 Se                26.97187900   -1.30746600   -0.08979400
 Se                34.77842400   -1.57785000   -0.11483300
 Se                14.65898200    0.51718500   -0.00294600

 1 2 1.0 6 1.5 7 1.0
 2 3 1.0 8 1.5
 3 4 1.0 9 1.5
 4 5 1.5 18 1.0
 5 6 1.5 10 1.0
 6 11 1.0
 7 12 1.5 144 1.0
 8 114 1.0
 9 114 1.0
 10
 11
 12 13 1.5 20 1.0
 13 14 1.5 19 1.0
 14 37 1.5 144 1.0
 15 16 1.5 103 1.5 143 1.0
 16 17 1.5 22 1.0
 17 18 1.5 21 1.0
 18 143 1.0
 19
 20
 21
 22
 23 24 1.0 28 1.5 29 1.0
 24 25 1.0 30 1.5
 25 26 1.0 31 1.5
 26 27 1.5 40 1.0
 27 28 1.5 32 1.0
 28 33 1.0
 29 34 1.5 146 1.0
 30 115 1.0
 31 115 1.0
 32
 33
 34 35 1.5 42 1.0
 35 36 1.5 41 1.0
 36 59 1.5 146 1.0
 37 38 1.5 145 1.0
 38 39 1.5 44 1.0
 39 40 1.5 43 1.0
 40 145 1.0
 41
 42
 43
 44
 45 46 1.0 50 1.5 51 1.0
 46 47 1.0 52 1.5
 47 48 1.0 53 1.5
 48 49 1.5 62 1.0
 49 50 1.5 54 1.0
 50 55 1.0
 51 56 1.5 148 1.0
 52 116 1.0
 53 116 1.0
 54
 55
 56 57 1.5 64 1.0
 57 58 1.5 63 1.0
 58 81 1.5 148 1.0
 59 60 1.5 147 1.0
 60 61 1.5 66 1.0
 61 62 1.5 65 1.0
 62 147 1.0
 63
 64
 65
 66
 67 68 1.0 72 1.5 73 1.0
 68 69 1.0 74 1.5
 69 70 1.0 75 1.5
 70 71 1.5 84 1.0
 71 72 1.5 76 1.0
 72 77 1.0
 73 78 1.5 149 1.0
 74 117 1.0
 75 117 1.0
 76
 77
 78 79 1.5 87 1.0
 79 80 1.5 86 1.0
 80 132 1.5 149 1.0
 81 82 1.5 152 1.0
 82 83 1.5 89 1.0
 83 84 1.5 88 1.0
 84 152 1.0
 85 131 1.0
 86
 87
 88
 89
 90 91 1.0 95 1.5 96 1.0
 91 92 1.0 97 1.5
 92 93 1.0 98 1.5
 93 94 1.5 107 1.0
 94 95 1.5 99 1.0
 95 100 1.0
 96 101 1.5 142 1.0
 97 113 1.0
 98 113 1.0
 99
 100
 101 102 1.5 109 1.0
 102 103 1.5 108 1.0
 103 142 1.0
 104 105 2.0 112 1.0 141 1.0
 105 106 1.5 111 1.0
 106 107 1.5 110 1.0
 107 141 1.0
 108
 109
 110
 111
 112
 113
 114
 115
 116
 117
 118 119 1.0 123 1.5 124 1.0
 119 120 1.0 125 1.5
 120 121 1.0 126 1.5
 121 122 1.5 135 1.0
 122 123 1.5 127 1.0
 123 128 1.0
 124 129 1.5 151 1.0
 125 140 1.0
 126 140 1.0
 127
 128
 129 130 1.5 137 1.0
 130 131 2.0 136 1.0
 131 151 1.0
 132 133 1.5 150 1.0
 133 134 1.5 139 1.0
 134 135 1.5 138 1.0
 135 150 1.0
 136
 137
 138
 139
 140
 141
 142
 143
 144
 145
 146
 147
 148
 149
 150
 151
 152

