%chk=A-SOS6uv.chk
%mem=200MW
# td=(nstates=10) b3lyp/lanl2dz geom=connectivity

A-SOS6uv

0 1
 C                 16.72665600    1.35425200   -0.08817500
 C                 17.49905800    2.57830600   -0.05219300
 C                 18.95593600    2.56899600   -0.00513800
 C                 19.71376500    1.33518900    0.00783200
 C                 18.92525200    0.17814000   -0.02953000
 C                 17.50123000    0.18729200   -0.07517800
 C                 15.27855500    1.35834900   -0.13129000
 N                 17.05861300    3.84992500   -0.05510000
 N                 19.41137000    3.83505000    0.02125100
 H                 19.41482500   -0.79209300   -0.02353400
 H                 17.00006800   -0.77679400   -0.10057500
 C                 14.40280700    2.44097700   -0.14578900
 C                 13.02402600    2.08613200   -0.18628400
 C                 12.77622300    0.71691900   -0.20496600
 C                 23.65599400    0.64916400    0.12959900
 C                 23.42409900    2.02115500    0.13373900
 C                 22.04977700    2.39274400    0.09286500
 C                 21.16154400    1.32109500    0.05538400
 H                 12.22818600    2.82348400   -0.20224000
 H                 14.75515300    3.46479500   -0.12714100
 H                 21.70963400    3.42076500    0.09025300
 H                 24.22837000    2.74852300    0.16560400
 C                  4.58541600   -0.67234300   -0.33393000
 C                  5.36021400   -1.89554400   -0.35873900
 C                  6.81733700   -1.88519500   -0.34672200
 C                  7.57409900   -0.65105500   -0.30885300
 C                  6.78377200    0.50540700   -0.28788900
 C                  5.35870100    0.49528100   -0.29998400
 C                  3.13688100   -0.68236200   -0.34141600
 N                  4.92159200   -3.16756400   -0.39371300
 N                  7.27455100   -3.15075500   -0.37494900
 H                  7.27269900    1.47576000   -0.25922200
 H                  4.85565200    1.45859500   -0.27953900
 C                  2.26985100   -1.77184700   -0.36975300
 C                  0.88845000   -1.42890300   -0.36478000
 C                  0.62814600   -0.06214900   -0.33271600
 C                 11.52140000    0.01715100   -0.24264100
 C                 11.28198300   -1.35337100   -0.28042800
 C                  9.90598500   -1.71674900   -0.30783500
 C                  9.02251700   -0.64013400   -0.29233000
 H                  0.09888200   -2.17274500   -0.38466900
 H                  2.63074100   -2.79235000   -0.39320800
 H                  9.56060900   -2.74260100   -0.33845900
 H                 12.08267700   -2.08541500   -0.28892600
 C                 -7.58716900    1.11611200   -0.24102900
 C                 -6.85213000    2.36367400   -0.23657900
 C                 -5.39485800    2.39916400   -0.25397300
 C                 -4.59964000    1.18912700   -0.27682900
 C                 -5.35306000    0.00826700   -0.28292900
 C                 -6.77705200   -0.02648900   -0.26570800
 C                 -9.03502500    1.07417200   -0.21994000
 N                 -7.33122300    3.62128700   -0.21711100
 N                 -4.97766700    3.67870700   -0.24489800
 H                 -4.83413500   -0.94667200   -0.30074800
 H                 -7.24887000   -1.00552600   -0.27175600
 C                 -9.94557400    2.12761500   -0.19487700
 C                -11.31259600    1.72799800   -0.17667600
 C                -11.51608700    0.35141100   -0.18718300
 C                 -0.63794900    0.61788600   -0.31660600
 C                 -0.90842600    1.98286500   -0.29697000
 C                 -2.29341100    2.31503700   -0.28256700
 C                 -3.15139700    1.21816600   -0.29006600
 H                -12.13201500    2.43881800   -0.15680700
 H                 -9.62630700    3.16251900   -0.18965000
 H                 -2.66298000    3.33276700   -0.26672100
 H                 -0.12465700    2.73304500   -0.29347400
 C                -19.65468100   -1.31265600   -0.00929600
 C                -18.84065900   -2.50931400   -0.06043600
 C                -17.38501600   -2.45036500   -0.09888200
 C                -16.66936100   -1.19164300   -0.08869800
 C                -17.49658100   -0.06251500   -0.03914800
 C                -18.92004200   -0.12005100   -0.00090900
 C                -21.10163100   -1.36977000    0.02928700
 N                -19.23783000   -3.79506200   -0.07991800
 N                -16.88692000   -3.69994200   -0.14221700
 H                -17.03964100    0.92347600   -0.02773300
 H                -19.45382500    0.82597600    0.03681200
 C                -21.93471400   -2.48543000    0.02014000
 C                -23.32584600   -2.18573500    0.06617200
 C                -23.62714000   -0.82813100    0.11372900
 C                -12.74717300   -0.39000600   -0.17305500
 C                -12.94120600   -1.76775500   -0.19458500
 C                -14.30409300   -2.17767000   -0.16913900
 C                -15.22237300   -1.13173000   -0.12621500
 H                -36.67669200   -1.26543200    0.42485500
 H                -24.09223400   -2.95362300    0.06490700
 H                -21.54282700   -3.49400200   -0.01939500
 H                -14.61530300   -3.21455200   -0.18142100
 H                -12.11693800   -2.47230500   -0.22827300
 C                 28.84594000   -0.76089300    0.28126700
 C                 29.59637100   -1.99874900    0.29676200
 C                 31.05316400   -2.01550800    0.34287300
 C                 31.83284600   -0.79650300    0.37568400
 C                 31.06670400    0.37254300    0.35953800
 C                 29.64015500    0.39010100    0.31436700
 C                 27.39654300   -0.74127400    0.23571800
 N                 29.13370200   -3.26217100    0.27451000
 N                 31.48648100   -3.29025300    0.34841200
 H                 31.57369400    1.33349200    0.38216700
 H                 29.15685900    1.36353200    0.30583200
 C                 26.50660400   -1.81056900    0.20038200
 C                 25.13282700   -1.43597000    0.16048100
 C                 24.90383900   -0.06390600    0.16333600
 C                 35.76959600   -0.19217600    0.49967200
 C                 35.54068500   -1.55025300    0.48574700
 C                 34.14850900   -1.90036000    0.44134600
 C                 33.28650900   -0.81188900    0.42099500
 H                 24.32717600   -2.16197200    0.13032200
 H                 26.84442100   -2.83926900    0.20393400
 H                 33.78992300   -2.92196500    0.42425200
 H                 36.33742500   -2.28536200    0.50611400
 H                 36.70994700    0.33935500    0.53116600
 S                 34.24197700    0.74264200    0.45849300
 S                 26.48228100    0.83607200    0.21880900
 S                 22.07981500   -0.25418300    0.07218100
 S                 14.34224700   -0.20554600   -0.17096700
 S                  9.94925100    0.92996400   -0.24098200
 S                  2.18648600    0.87380800   -0.30656900
 S                 -2.18890100   -0.32997100   -0.31675700
 S                 -9.92072800   -0.51920300   -0.22185000
 S                -14.34842000    0.46882200   -0.11870500
 S                -22.09864800    0.15554900    0.10062700
 C                -31.87117200    0.15020500    0.35626600
 C                -31.16156400    1.41169300    0.38218400
 C                -29.70594900    1.47871400    0.34717000
 C                -28.88661600    0.28668300    0.28459000
 C                -29.61464500   -0.90766900    0.26139400
 C                -31.04005800   -0.97221200    0.29555100
 C                -33.32363500    0.08155200    0.39028400
 N                -31.66616200    2.65887100    0.43796000
 N                -29.31514300    2.76611300    0.38157200
 H                -29.07713500   -1.85126200    0.21430800
 H                -31.49225200   -1.96022700    0.27187000
 C                -34.24636500    1.11803400    0.44669600
 C                -35.61655700    0.68812900    0.46504600
 C                -35.76795200   -0.68041300    0.42305300
 C                -24.91146800   -0.18453700    0.16782600
 C                -25.21605400    1.17161600    0.22177000
 C                -26.60891500    1.46756600    0.26699300
 C                -27.43818500    0.35003000    0.24949800
 H                -36.45406200    1.37566100    0.50782500
 H                -33.94649200    2.15847200    0.47398000
 H                -27.00380500    2.47470400    0.31189700
 H                -24.45192500    1.94167100    0.22957600
 S                -26.43789100   -1.17190600    0.17140200
 S                -34.18929800   -1.52512500    0.35802600
 O                 30.30091100   -4.07648600    0.30476600
 O                 18.24007300    4.64364900   -0.00974000
 O                  6.10394000   -3.96016400   -0.40505400
 O                 -6.17388300    4.45091500   -0.22164300
 O                -18.03069200   -4.54761800   -0.13150500
 O                -30.52669500    3.51168700    0.43937600

 1 2 1.0 6 1.5 7 1.0
 2 3 1.0 8 1.5
 3 4 1.0 9 1.5
 4 5 1.5 18 1.0
 5 6 1.5 10 1.0
 6 11 1.0
 7 12 1.5 116 1.0
 8 148 1.0
 9 148 1.0
 10
 11
 12 13 1.5 20 1.0
 13 14 1.5 19 1.0
 14 37 1.5 116 1.0
 15 16 1.5 103 1.5 115 1.0
 16 17 1.5 22 1.0
 17 18 1.5 21 1.0
 18 115 1.0
 19
 20
 21
 22
 23 24 1.0 28 1.5 29 1.0
 24 25 1.0 30 1.5
 25 26 1.0 31 1.5
 26 27 1.5 40 1.0
 27 28 1.5 32 1.0
 28 33 1.0
 29 34 1.5 118 1.0
 30 149 1.0
 31 149 1.0
 32
 33
 34 35 1.5 42 1.0
 35 36 1.5 41 1.0
 36 59 1.5 118 1.0
 37 38 1.5 117 1.0
 38 39 1.5 44 1.0
 39 40 1.5 43 1.0
 40 117 1.0
 41
 42
 43
 44
 45 46 1.0 50 1.5 51 1.0
 46 47 1.0 52 1.5
 47 48 1.0 53 1.5
 48 49 1.5 62 1.0
 49 50 1.5 54 1.0
 50 55 1.0
 51 56 1.5 120 1.0
 52 150 1.0
 53 150 1.0
 54
 55
 56 57 1.5 64 1.0
 57 58 1.5 63 1.0
 58 81 1.5 120 1.0
 59 60 1.5 119 1.0
 60 61 1.5 66 1.0
 61 62 1.5 65 1.0
 62 119 1.0
 63
 64
 65
 66
 67 68 1.0 72 1.5 73 1.0
 68 69 1.0 74 1.5
 69 70 1.0 75 1.5
 70 71 1.5 84 1.0
 71 72 1.5 76 1.0
 72 77 1.0
 73 78 1.5 122 1.0
 74 151 1.0
 75 151 1.0
 76
 77
 78 79 1.5 87 1.0
 79 80 1.5 86 1.0
 80 122 1.0 137 1.5
 81 82 1.5 121 1.0
 82 83 1.5 89 1.0
 83 84 1.5 88 1.0
 84 121 1.0
 85 136 1.0
 86
 87
 88
 89
 90 91 1.0 95 1.5 96 1.0
 91 92 1.0 97 1.5
 92 93 1.5 98 1.5
 93 94 1.5 107 1.0
 94 95 1.5 99 1.0
 95 100 1.0
 96 101 1.5 114 1.0
 97 147 1.0
 98 147 1.0
 99
 100
 101 102 1.5 109 1.0
 102 103 1.5 108 1.0
 103 114 1.0
 104 105 2.0 112 1.0 113 1.0
 105 106 1.5 111 1.0
 106 107 1.5 110 1.0
 107 113 1.0
 108
 109
 110
 111
 112
 113
 114
 115
 116
 117
 118
 119
 120
 121
 122
 123 124 1.0 128 1.5 129 1.0
 124 125 1.0 130 1.5
 125 126 1.0 131 1.5
 126 127 1.5 140 1.0
 127 128 1.5 132 1.0
 128 133 1.0
 129 134 1.5 146 1.0
 130 152 1.0
 131 152 1.0
 132
 133
 134 135 1.5 142 1.0
 135 136 2.0 141 1.0
 136 146 1.0
 137 138 1.5 145 1.0
 138 139 1.5 144 1.0
 139 140 1.5 143 1.0
 140 145 1.0
 141
 142
 143
 144
 145
 146
 147
 148
 149
 150
 151
 152

