%mem=200MW
%chk=A-SSS6uv.chk
# td=(nstates=10) b3lyp/lanl2dz geom=connectivity

A-SSS6uv

0 1
 C                 16.63422300    1.54898100   -0.11319400
 C                 17.37355500    2.80320200   -0.07710700
 C                 18.85816600    2.81380800   -0.02513100
 C                 19.61653800    1.57035200   -0.00998200
 C                 18.84412200    0.40453800   -0.04759900
 C                 17.42406600    0.39445200   -0.09669000
 C                 15.18433300    1.50414000   -0.16014700
 N                 16.80541100    4.02287500   -0.08584400
 N                 19.40792500    4.04156300    0.00549500
 H                 19.34565600   -0.55967100   -0.03933800
 H                 16.93694700   -0.57684700   -0.12169200
 C                 14.25997300    2.54505200   -0.17672200
 C                 12.89747700    2.13069800   -0.21956200
 C                 12.70746900    0.75257400   -0.23854100
 C                 23.55453900    0.83184000    0.12082100
 C                 23.34355400    2.20692400    0.11932600
 C                 21.97504900    2.60105400    0.07520600
 C                 21.06679400    1.54663600    0.04023700
 H                 12.07043200    2.83288700   -0.23664700
 H                 14.57716200    3.57912200   -0.15727600
 H                 21.64227000    3.63035200    0.06861000
 H                 24.15967900    2.92127200    0.14993600
 C                  4.57785600   -0.89015400   -0.36456000
 C                  5.35286500   -2.12305100   -0.39438600
 C                  6.83778800   -2.09296000   -0.38475800
 C                  7.56151000   -0.82929300   -0.34571200
 C                  6.75634400    0.31456700   -0.32210400
 C                  5.33540000    0.28562200   -0.33102600
 C                  3.12660800   -0.88886200   -0.36622200
 N                  4.81896600   -3.35755800   -0.43131900
 N                  7.42156100   -3.30489700   -0.41435000
 H                  7.23147700    1.29170500   -0.29281300
 H                  4.82068500    1.24269200   -0.30792400
 C                  2.23682800   -1.95938000   -0.39294600
 C                  0.86137500   -1.59078400   -0.38009100
 C                  0.62502800   -0.22017000   -0.34317400
 C                 11.48380100   -0.00039000   -0.27766100
 C                 11.30277400   -1.37949000   -0.31395700
 C                  9.94358000   -1.80289100   -0.34281700
 C                  9.01140200   -0.76884700   -0.32953400
 H                  0.05797100   -2.31980300   -0.39786500
 H                  2.58844500   -2.98192900   -0.42063600
 H                  9.63348500   -2.83874800   -0.37260700
 H                 12.13484600   -2.07580900   -0.32006900
 C                 -7.56433500    1.05267300   -0.19332900
 C                 -6.85027800    2.32213500   -0.19107300
 C                 -5.36569900    2.36371200   -0.21887700
 C                 -4.58194000    1.13651900   -0.24884500
 C                 -5.33074100   -0.04528000   -0.25100900
 C                 -6.75088900   -0.08514400   -0.22453500
 C                 -9.01337900    0.97864500   -0.16504800
 N                 -7.44324300    3.52975100   -0.16492700
 N                 -4.84077400    3.60258600   -0.21379400
 H                 -4.80933700   -0.99868000   -0.27347700
 H                 -7.21859000   -1.06624200   -0.22904300
 C                 -9.95664900    2.00217300   -0.13677800
 C                -11.31137900    1.56283000   -0.11404300
 C                -11.47679700    0.18134200   -0.12335900
 C                 -0.62717200    0.48466300   -0.31802300
 C                 -0.86829400    1.85470300   -0.29537500
 C                 -2.24539700    2.21824400   -0.27078900
 C                 -3.13094200    1.14394200   -0.27295700
 H                -12.15105600    2.24965900   -0.09090100
 H                 -9.65810700    3.04188500   -0.13275800
 H                 -2.60075600    3.23974600   -0.25128000
 H                 -0.06761200    2.58695900   -0.29684900
 C                -19.58270900   -1.55541400    0.04252900
 C                -18.79640300   -2.78129400    0.01979200
 C                -17.31208800   -2.73698700   -0.01588500
 C                -16.60064100   -1.46614500   -0.02732400
 C                -17.41623100   -0.32973000   -0.00402400
 C                -18.83633200   -0.37212000    0.02906800
 C                -21.03371000   -1.56611300    0.07564800
 N                -19.31867900   -4.02135100    0.02804500
 N                -16.71659700   -3.94357700   -0.03492700
 H                -16.95042000    0.65228100   -0.01127800
 H                -19.35958200    0.58040500    0.04460400
 C                -21.91594800   -2.64281600    0.09216400
 C                -23.29408000   -2.28313300    0.12342000
 C                -23.53940400   -0.91388900    0.13244200
 C                -12.68896800   -0.59076400   -0.10493800
 C                -12.85324100   -1.97238000   -0.11233100
 C                -14.20752300   -2.41285200   -0.08693400
 C                -15.15161100   -1.39008700   -0.05910300
 H                -36.53000000   -1.11930800    0.39868200
 H                -24.09224900   -3.01801700    0.13906800
 H                -21.55800000   -3.66351400    0.08122900
 H                -14.50533700   -3.45280600   -0.08810500
 H                -12.01298500   -2.65851600   -0.13534200
 C                 28.72684600   -0.65940500    0.28546000
 C                 29.47407000   -1.90932300    0.31703100
 C                 30.95872000   -1.91054900    0.36739600
 C                 31.70953900   -0.66345600    0.38449300
 C                 30.93180800    0.49562400    0.35179700
 C                 29.50887100    0.49831900    0.30479200
 C                 27.27512700   -0.62633000    0.23868500
 N                 28.91352400   -3.13247900    0.30516400
 N                 31.51627800   -3.13571200    0.39398300
 H                 31.42805800    1.46263200    0.36204600
 H                 29.01661100    1.46718900    0.28284000
 C                 26.36296000   -1.67677700    0.21171700
 C                 24.99597400   -1.27735900    0.16831700
 C                 24.79038900    0.09821200    0.16028100
 C                 35.62758300    0.08643300    0.50191200
 C                 35.45087000   -1.27919200    0.50598800
 C                 34.07299500   -1.68475500    0.46636300
 C                 33.16611300   -0.63428300    0.43113400
 H                 24.17709700   -1.98881700    0.14388400
 H                 26.69153500   -2.70734300    0.22405600
 H                 33.74560900   -2.71591800    0.46294400
 H                 36.27564000   -1.98278000    0.53609100
 H                 36.54649000    0.65479100    0.52630800
 S                 30.21347200   -4.32709600    0.35669300
 S                 18.09770600    5.22596300   -0.03010500
 S                  6.14455100   -4.52443400   -0.45552000
 S                 -6.17491900    4.75937800   -0.17395600
 S                -17.98242400   -5.17560000   -0.00848000
 S                 34.06425500    0.95974300    0.44799100
 S                 26.38471300    0.96984500    0.20908600
 S                 21.96417200   -0.04574900    0.06380500
 S                 14.31152200   -0.10116900   -0.20219400
 S                  9.87358700    0.84272100   -0.27922200
 S                  2.20008900    0.68657700   -0.32324100
 S                 -2.19885500   -0.42802100   -0.30885800
 S                 -9.85738300   -0.64291500   -0.16296700
 S                -14.30897900    0.23220100   -0.06420800
 S                -21.97043300    0.00354300    0.10022900
 C                -31.73426400    0.34601200    0.30619800
 C                -31.02130000    1.61522900    0.29353400
 C                -29.53660900    1.65827100    0.26253500
 C                -28.75177200    0.43139400    0.24470700
 C                -29.49899500   -0.74925500    0.25889800
 C                -30.92175000   -0.78915800    0.28814300
 C                -33.18977900    0.27249800    0.33508100
 N                -31.61571400    2.82302000    0.30810900
 N                -29.01281600    2.89768300    0.25359800
 H                -28.97779900   -1.70302300    0.24739500
 H                -31.38903700   -1.77046700    0.29650000
 C                -34.12866800    1.29476700    0.35425600
 C                -35.49390800    0.84726700    0.38002500
 C                -35.62868700   -0.52319700    0.38114800
 C                -24.79431800   -0.21327600    0.16138300
 C                -25.03850000    1.15592400    0.17153200
 C                -26.41678000    1.51662000    0.20083800
 C                -27.29924000    0.44084200    0.21467300
 H                -36.34003000    1.52542100    0.39704200
 H                -33.83310200    2.33550800    0.34955900
 H                -26.77435500    2.53743900    0.21189900
 H                -24.23973800    1.89025200    0.15805200
 S                -30.34865000    4.05278900    0.28320800
 S                -26.36409700   -1.12925300    0.18990300
 S                -34.03883300   -1.34836300    0.34945700

 1 2 1.0 6 1.5 7 1.0
 2 3 1.0 8 1.5
 3 4 1.0 9 1.5
 4 5 1.5 18 1.0
 5 6 1.5 10 1.0
 6 11 1.0
 7 12 1.5 121 1.0
 8 114 1.0
 9 114 1.0
 10
 11
 12 13 1.5 20 1.0
 13 14 1.5 19 1.0
 14 37 1.5 121 1.0
 15 16 1.5 103 1.5 120 1.0
 16 17 1.5 22 1.0
 17 18 1.5 21 1.0
 18 120 1.0
 19
 20
 21
 22
 23 24 1.0 28 1.5 29 1.0
 24 25 1.0 30 1.5
 25 26 1.0 31 1.5
 26 27 1.5 40 1.0
 27 28 1.5 32 1.0
 28 33 1.0
 29 34 1.5 123 1.0
 30 115 1.0
 31 115 1.0
 32
 33
 34 35 1.5 42 1.0
 35 36 1.5 41 1.0
 36 59 1.5 123 1.0
 37 38 1.5 122 1.0
 38 39 1.5 44 1.0
 39 40 1.5 43 1.0
 40 122 1.0
 41
 42
 43
 44
 45 46 1.0 50 1.5 51 1.0
 46 47 1.0 52 1.5
 47 48 1.0 53 1.5
 48 49 1.5 62 1.0
 49 50 1.5 54 1.0
 50 55 1.0
 51 56 1.5 125 1.0
 52 116 1.0
 53 116 1.0
 54
 55
 56 57 1.5 64 1.0
 57 58 1.5 63 1.0
 58 81 1.5 125 1.0
 59 60 1.5 124 1.0
 60 61 1.5 66 1.0
 61 62 1.5 65 1.0
 62 124 1.0
 63
 64
 65
 66
 67 68 1.0 72 1.5 73 1.0
 68 69 1.0 74 1.5
 69 70 1.0 75 1.5
 70 71 1.5 84 1.0
 71 72 1.5 76 1.0
 72 77 1.0
 73 78 1.5 127 1.0
 74 117 1.0
 75 117 1.0
 76
 77
 78 79 1.5 87 1.0
 79 80 1.5 86 1.0
 80 127 1.0 142 1.5
 81 82 1.5 126 1.0
 82 83 1.5 89 1.0
 83 84 1.5 88 1.0
 84 126 1.0
 85 141 1.0
 86
 87
 88
 89
 90 91 1.0 95 1.5 96 1.0
 91 92 1.0 97 1.5
 92 93 1.0 98 1.5
 93 94 1.5 107 1.0
 94 95 1.5 99 1.0
 95 100 1.0
 96 101 1.5 119 1.0
 97 113 1.0
 98 113 1.0
 99
 100
 101 102 1.5 109 1.0
 102 103 1.5 108 1.0
 103 119 1.0
 104 105 2.0 112 1.0 118 1.0
 105 106 1.5 111 1.0
 106 107 1.5 110 1.0
 107 118 1.0
 108
 109
 110
 111
 112
 113
 114
 115
 116
 117
 118
 119
 120
 121
 122
 123
 124
 125
 126
 127
 128 129 1.0 133 1.5 134 1.0
 129 130 1.0 135 1.5
 130 131 1.0 136 1.5
 131 132 1.5 145 1.0
 132 133 1.5 137 1.0
 133 138 1.0
 134 139 1.5 152 1.0
 135 150 1.0
 136 150 1.0
 137
 138
 139 140 1.5 147 1.0
 140 141 2.0 146 1.0
 141 152 1.0
 142 143 1.5 151 1.0
 143 144 1.5 149 1.0
 144 145 1.5 148 1.0
 145 151 1.0
 146
 147
 148
 149
 150
 151
 152

