%chk=A-SSeS6uv.chk
%mem=200MW
# td=(nstates=10) b3lyp/lanl2dz geom=connectivity

A-SSeS6uv

0 1
 C                 16.59114700    1.63043300   -0.00859500
 C                 17.30736100    2.90307400   -0.00249800
 C                 18.80170700    2.93536000   -0.00197500
 C                 19.57286800    1.69519600   -0.00712900
 C                 18.81729000    0.51899400   -0.01282300
 C                 17.39717700    0.48827100   -0.01364100
 C                 15.14060000    1.55523800   -0.00937500
 N                 16.69365500    4.09885000    0.00280700
 N                 19.36299900    4.15654300    0.00368700
 H                 19.33249100   -0.43799700   -0.01681300
 H                 16.92387500   -0.49011500   -0.01829900
 C                 14.19130000    2.57336300   -0.00285100
 C                 12.83795400    2.12818400   -0.00588400
 C                 12.67817900    0.74629700   -0.01504500
 C                 23.52034500    0.98157200   -0.00388200
 C                 23.30124800    2.35508600    0.00035100
 C                 21.92975200    2.74145700   -0.00067800
 C                 21.02529900    1.68339300   -0.00585200
 H                 11.99503400    2.81147000   -0.00138200
 H                 14.48706600    3.61355200    0.00398300
 H                 21.58971800    3.76799700    0.00251400
 H                 24.11389300    3.07409900    0.00459800
 C                  4.57648300   -0.99720300   -0.03306000
 C                  5.35140100   -2.23496900   -0.04009300
 C                  6.84553400   -2.19814700   -0.03832300
 C                  7.55798100   -0.92326300   -0.02968900
 C                  6.74847400    0.21650800   -0.02349400
 C                  5.32847100    0.18136800   -0.02509100
 C                  3.12409700   -0.99052600   -0.03409800
 N                  4.79390400   -3.45786500   -0.04846700
 N                  7.46274100   -3.39207600   -0.04516700
 H                  7.21888800    1.19627300   -0.01695700
 H                  4.81026800    1.13674700   -0.01958000
 C                  2.22415800   -2.05263700   -0.04030500
 C                  0.85132000   -1.67239900   -0.03924100
 C                  0.62593300   -0.29968100   -0.03226900
 C                 11.46931700   -0.03129900   -0.02061700
 C                 11.31171200   -1.41348900   -0.02907700
 C                  9.95931000   -1.86085200   -0.03303500
 C                  9.00822300   -0.84438200   -0.02779400
 H                  0.04191700   -2.39503500   -0.04389200
 H                  2.56885600   -3.07757700   -0.04564600
 H                  9.66536000   -2.90150700   -0.03964100
 H                 12.15572100   -2.09534800   -0.03239500
 C                 -7.55149400    1.03867000   -0.01969500
 C                 -6.83999000    2.31412100   -0.02122400
 C                 -5.34582300    2.35199800   -0.02300400
 C                 -4.56997700    1.11473400   -0.02333500
 C                 -5.32115500   -0.06431800   -0.02169200
 C                 -6.74107100   -0.10045700   -0.01994600
 C                 -9.00166800    0.95812200   -0.01801100
 N                 -7.45826400    3.50746300   -0.02113600
 N                 -4.78928000    3.57536700   -0.02424400
 H                 -4.80233900   -1.01939900   -0.02162700
 H                 -7.21066800   -1.08060300   -0.01886800
 C                 -9.95501800    1.97251800   -0.01892600
 C                -11.30668800    1.52208700   -0.01690200
 C                -11.46107900    0.13952800   -0.01428400
 C                 -0.61926600    0.41808300   -0.02947400
 C                 -0.84487300    1.79078500   -0.02712800
 C                 -2.21778700    2.17084200   -0.02490500
 C                 -3.11755900    1.10862900   -0.02525500
 H                -12.15223000    2.20208100   -0.01733800
 H                 -9.66338800    3.01388200   -0.02088700
 H                 -2.56261300    3.19578400   -0.02324400
 H                 -0.03551700    2.51347900   -0.02734400
 C                -19.55325500   -1.65967600   -0.00169200
 C                -18.76790600   -2.89110600    0.00031500
 C                -17.27420200   -2.84208100   -0.00201100
 C                -16.57219600   -1.56135600   -0.00621300
 C                -17.39102100   -0.42828200   -0.00833700
 C                -18.81098300   -0.47497200   -0.00619600
 C                -21.00578100   -1.66633400    0.00109800
 N                -19.31518500   -4.11863800    0.00418200
 N                -16.64734000   -4.03103700   -0.00006100
 H                -16.92852700    0.55532000   -0.01172600
 H                -19.33709100    0.47613200   -0.00807300
 C                -21.89480500   -2.73744900    0.00587000
 C                -23.27150300   -2.37147900    0.00831300
 C                -23.51117300   -1.00142900    0.00541600
 C                -12.66618800   -0.64391900   -0.01175000
 C                -12.81557500   -2.02700200   -0.00883900
 C                -14.16508500   -2.48252400   -0.00674000
 C                -15.12241400   -1.47193700   -0.00795400
 H                -36.47183300   -1.34839700    0.07636900
 H                -24.07326100   -3.10261400    0.01202200
 H                -21.53975100   -3.75883000    0.00752600
 H                -14.45277200   -3.52492800   -0.00435700
 H                -11.96752400   -2.70386200   -0.00820300
 C                 28.70865600   -0.46765500    0.01569400
 C                 29.47411300   -1.71144600    0.02747900
 C                 30.96854100   -1.68525700    0.03955800
 C                 31.69047900   -0.41671900    0.03858500
 C                 30.89166000    0.72690900    0.02519900
 C                 29.46885800    0.70347600    0.01434300
 C                 27.25489900   -0.45087400    0.00751900
 N                 28.90745300   -2.93006800    0.02882900
 N                 31.57721400   -2.88438200    0.05065200
 H                 31.36978600    1.70301400    0.02310300
 H                 28.95896300    1.66334700    0.00453400
 C                 26.34874900   -1.50665200    0.00101000
 C                 24.97788900   -1.11730400   -0.00444300
 C                 24.76173000    0.25640800   -0.00195700
 C                 35.59009300    0.44324300    0.06561700
 C                 35.45290100   -0.92674600    0.07451100
 C                 34.08660100   -1.37227000    0.06611700
 C                 33.14778100   -0.35007300    0.05052400
 H                 24.16381700   -1.83469800   -0.00959400
 H                 26.68666700   -2.53381100    0.00117600
 H                 33.78757400   -2.41165100    0.07105700
 H                 36.29810600   -1.60622000    0.08683400
 H                 36.49238900    1.03807800    0.06900000
 Se                30.26479600   -4.21650600    0.04643600
 Se                18.00025800    5.43746600    0.00968000
 Se                 6.16035700   -4.73463400   -0.05509500
 Se                -6.15682100    4.85107700   -0.02288200
 Se               -17.93860000   -5.38427600    0.00468900
 S                 34.00112000    1.27038000    0.04598500
 S                 26.35031300    1.13935900    0.00732600
 S                 21.93382700    0.09517600   -0.01042300
 S                 14.30166800   -0.07074300   -0.02025700
 S                  9.84455600    0.78320900   -0.01730300
 S                  2.20861400    0.59375500   -0.02604500
 S                 -2.20181100   -0.47556000   -0.02846200
 S                 -9.83431400   -0.67111600   -0.01437100
 S                -14.29603200    0.16084700   -0.01221100
 S                -21.93788700   -0.09130500   -0.00076200
 C                -31.70687300    0.22183700    0.04129500
 C                -31.01416100    1.50644000    0.03014800
 C                -29.52058200    1.56635500    0.02102700
 C                -28.72692200    0.34046600    0.02358000
 C                -29.46028600   -0.84763000    0.03444100
 C                -30.88207900   -0.90327600    0.04283800
 C                -33.16218300    0.12078300    0.05004900
 N                -31.65003400    2.69142300    0.02720700
 N                -28.98159500    2.79738600    0.01073800
 H                -28.92895600   -1.79580900    0.03686500
 H                -31.33784000   -1.88993800    0.05090000
 C                -34.12568400    1.11988900    0.04950500
 C                -35.48077300    0.64087500    0.05933700
 C                -35.58398100   -0.73216700    0.06764900
 C                -24.76542100   -0.29876800    0.00716600
 C                -25.01016900    1.07008100    0.00130900
 C                -26.38928100    1.43055500    0.00616000
 C                -27.27307700    0.35599000    0.01591400
 H                -36.34250100    1.29945900    0.06016000
 H                -33.85225100    2.16634000    0.04218900
 H                -26.74873500    2.45046400    0.00280100
 H                -24.21144500    1.80451200   -0.00641500
 Se               -30.36770800    4.05286500    0.01334000
 S                -26.33533700   -1.21465300    0.01972700
 S                -33.97572800   -1.52006700    0.06392600

 1 2 1.0 6 1.5 7 1.0
 2 3 1.0 8 1.5
 3 4 1.0 9 1.5
 4 5 1.5 18 1.0
 5 6 1.5 10 1.0
 6 11 1.0
 7 12 1.5 121 1.0
 8 114 1.0
 9 114 1.0
 10
 11
 12 13 1.5 20 1.0
 13 14 1.5 19 1.0
 14 37 1.5 121 1.0
 15 16 1.5 103 1.5 120 1.0
 16 17 1.5 22 1.0
 17 18 1.5 21 1.0
 18 120 1.0
 19
 20
 21
 22
 23 24 1.0 28 1.5 29 1.0
 24 25 1.0 30 1.5
 25 26 1.0 31 1.5
 26 27 1.5 40 1.0
 27 28 1.5 32 1.0
 28 33 1.0
 29 34 1.5 123 1.0
 30 115 1.0
 31 115 1.0
 32
 33
 34 35 1.5 42 1.0
 35 36 1.5 41 1.0
 36 59 1.5 123 1.0
 37 38 1.5 122 1.0
 38 39 1.5 44 1.0
 39 40 1.5 43 1.0
 40 122 1.0
 41
 42
 43
 44
 45 46 1.0 50 1.5 51 1.0
 46 47 1.0 52 1.5
 47 48 1.0 53 1.5
 48 49 1.5 62 1.0
 49 50 1.5 54 1.0
 50 55 1.0
 51 56 1.5 125 1.0
 52 116 1.0
 53 116 1.0
 54
 55
 56 57 1.5 64 1.0
 57 58 1.5 63 1.0
 58 81 1.5 125 1.0
 59 60 1.5 124 1.0
 60 61 1.5 66 1.0
 61 62 1.5 65 1.0
 62 124 1.0
 63
 64
 65
 66
 67 68 1.0 72 1.5 73 1.0
 68 69 1.0 74 1.5
 69 70 1.0 75 1.5
 70 71 1.5 84 1.0
 71 72 1.5 76 1.0
 72 77 1.0
 73 78 1.5 127 1.0
 74 117 1.0
 75 117 1.0
 76
 77
 78 79 1.5 87 1.0
 79 80 1.5 86 1.0
 80 127 1.0 142 1.5
 81 82 1.5 126 1.0
 82 83 1.5 89 1.0
 83 84 1.5 88 1.0
 84 126 1.0
 85 141 1.0
 86
 87
 88
 89
 90 91 1.0 95 1.5 96 1.0
 91 92 1.0 97 1.5
 92 93 1.0 98 1.5
 93 94 1.5 107 1.0
 94 95 1.5 99 1.0
 95 100 1.0
 96 101 1.5 119 1.0
 97 113 1.0
 98 113 1.0
 99
 100
 101 102 1.5 109 1.0
 102 103 1.5 108 1.0
 103 119 1.0
 104 105 2.0 112 1.0 118 1.0
 105 106 1.5 111 1.0
 106 107 1.5 110 1.0
 107 118 1.0
 108
 109
 110
 111
 112
 113
 114
 115
 116
 117
 118
 119
 120
 121
 122
 123
 124
 125
 126
 127
 128 129 1.0 133 1.5 134 1.0
 129 130 1.0 135 1.5
 130 131 1.0 136 1.5
 131 132 1.5 145 1.0
 132 133 1.5 137 1.0
 133 138 1.0
 134 139 1.5 152 1.0
 135 150 1.0
 136 150 1.0
 137
 138
 139 140 1.5 147 1.0
 140 141 2.0 146 1.0
 141 152 1.0
 142 143 1.5 151 1.0
 143 144 1.5 149 1.0
 144 145 1.5 148 1.0
 145 151 1.0
 146
 147
 148
 149
 150
 151
 152

