%mem=400MW
%chk=A-STeS6uv.chk
# td=(nstates=6,root=1) b3lyp/lanl2dz geom=connectivity

A-STeS6uv

0 1
 C                -16.55043600    1.78586700    0.02822400
 C                -17.25412800    3.07186200    0.00284500
 C                -18.76253600    3.10915100   -0.02664900
 C                -19.53016500    1.86002600   -0.02881900
 C                -18.77903700    0.68302800   -0.00317400
 C                -17.35976200    0.64782000    0.02392300
 C                -15.10006600    1.69373200    0.05529300
 N                -16.60402200    4.24503800    0.00442000
 N                -19.35314700    4.31302400   -0.04975700
 H                -19.29642800   -0.27286200   -0.00326400
 H                -16.89081000   -0.33255600    0.04220700
 C                -14.13431300    2.69607100    0.06280200
 C                -12.78767100    2.23108100    0.08968900
 C                -12.64790600    0.84718300    0.10437200
 C                -23.47489700    1.11744400   -0.09108000
 C                -23.26604200    2.49237600   -0.09829300
 C                -21.89767700    2.88983400   -0.07856300
 C                -20.98336600    1.84070700   -0.05481600
 H                -11.93469300    2.90179700    0.09835400
 H                -14.41914500    3.73891700    0.04854700
 H                -21.56140500    3.91729700   -0.08098500
 H                -24.08441800    3.20469800   -0.11766500
 C                 -4.57187800   -0.99473400    0.20803300
 C                 -5.34724200   -2.23912600    0.21988600
 C                 -6.85547300   -2.19269400    0.20806300
 C                 -7.55171600   -0.90242000    0.18503700
 C                 -6.73547500    0.23076800    0.17770400
 C                 -5.31608800    0.18692100    0.18865600
 C                 -3.11846300   -0.98589500    0.21396500
 N                 -4.76400700   -3.44659900    0.24130400
 N                 -7.51244800   -3.36197800    0.21955900
 H                 -7.19889900    1.21384000    0.16158600
 H                 -4.79272800    1.13955600    0.17987500
 C                 -2.21297300   -2.04306400    0.22754100
 C                 -0.84148100   -1.65801800    0.22599600
 C                 -0.62021000   -0.28482900    0.21172000
 C                -11.45136900    0.05132700    0.13050700
 C                -11.31579100   -1.33293500    0.15178700
 C                 -9.97092900   -1.80210800    0.17327000
 C                 -9.00170500   -0.80307300    0.16947500
 H                 -0.02933300   -2.37758900    0.23585900
 H                 -2.55845000   -3.06734500    0.23822700
 H                 -9.68941200   -2.84573900    0.19128100
 H                -12.17095200   -2.00088200    0.15204200
 C                  7.55585900    1.02673100    0.14862200
 C                  6.86612700    2.32054300    0.16185000
 C                  5.35800900    2.37447700    0.17640200
 C                  4.57662200    1.13391700    0.17712800
 C                  5.31503000   -0.05144800    0.16501600
 C                  6.73396300   -0.10235500    0.15137900
 C                  9.00522800    0.91860300    0.13359700
 N                  7.52904300    3.48654400    0.16188500
 N                  4.78055600    3.58485400    0.18855000
 H                  4.78716800   -1.00160000    0.16509900
 H                  7.19233900   -1.08784400    0.14228000
 C                  9.98167900    1.91060200    0.12964500
 C                 11.32331200    1.43126100    0.11310900
 C                 11.44858300    0.04591000    0.10340600
 C                  0.62336400    0.43559000    0.20502100
 C                  0.84768500    1.80833200    0.20496000
 C                  2.22035500    2.19022800    0.19638400
 C                  3.12320500    1.13074300    0.18873700
 H                 12.18343500    2.09282100    0.10814600
 H                  9.70795500    2.95645400    0.13870000
 H                  2.56816900    3.21381200    0.19582700
 H                  0.03718000    2.52981500    0.21182900
 C                 19.50849900   -1.85634600   -0.02321400
 C                 18.72517700   -3.09573100   -0.02470900
 C                 17.21736000   -3.03971700    0.00087300
 C                 16.52969700   -1.74499700    0.02592000
 C                 17.35322200   -0.61718600    0.02591100
 C                 18.77210800   -0.67007400    0.00268600
 C                 20.96188000   -1.85583300   -0.04728300
 N                 19.30064900   -4.30687200   -0.04846500
 N                 16.55278400   -4.20478600   -0.00135800
 H                 16.89638800    0.36889300    0.04444400
 H                 19.30145100    0.27925900    0.00540900
 C                 21.86194200   -2.91717700   -0.07172600
 C                 23.23548300   -2.53840400   -0.09045800
 C                 23.46305200   -1.16643300   -0.08158600
 C                 12.63774600   -0.76121300    0.08490200
 C                 12.76223300   -2.14661500    0.07468400
 C                 14.10347900   -2.62668700    0.05410900
 C                 15.08046400   -1.63530500    0.04781700
 H                 36.40106000   -1.46569500   -0.30155300
 H                 24.04405300   -3.26179300   -0.11016200
 H                 21.51167900   -3.93990800   -0.07562800
 H                 14.37667200   -3.67265000    0.04303400
 H                 11.90182100   -2.80777400    0.08136200
 C                -28.65491000   -0.36883800   -0.15866900
 C                -29.41814800   -1.62095900   -0.16821100
 C                -30.92684600   -1.58841300   -0.19087700
 C                -31.63517600   -0.30587000   -0.20205900
 C                -30.83203900    0.83287900   -0.19183400
 C                -29.40986400    0.80383800   -0.17133100
 C                -27.20038100   -0.34563600   -0.13785600
 N                -28.82310300   -2.82266500   -0.15825000
 N                -31.57323400   -2.76443600   -0.19997800
 H                -31.30505700    1.81149000   -0.19969400
 H                -28.89709800    1.76222000   -0.16520400
 C                -26.28440300   -1.39274600   -0.12112200
 C                -24.91657800   -0.99257200   -0.10332800
 C                -24.71050300    0.38254100   -0.10578100
 C                -35.52400200    0.61321200   -0.25473500
 C                -35.40840700   -0.75851300   -0.25282300
 C                -34.04925100   -1.22603100   -0.23463700
 C                -33.09271200   -0.22056100   -0.22220500
 H                -24.09668000   -1.70329600   -0.08933100
 H                -26.61844100   -2.42089900   -0.12231900
 H                -33.76251900   -2.26855600   -0.23044400
 H                -36.26458800   -1.42436400   -0.26398300
 H                -36.41670200    1.22229200   -0.26677100
 S                -33.92199300    1.41459400   -0.23395900
 S                -26.30582400    1.25286700   -0.13123400
 S                -21.88151000    0.24403600   -0.05747700
 S                -14.28329400    0.05435200    0.08380600
 S                 -9.81339100    0.83917900    0.13728600
 S                 -2.20621600    0.60293200    0.19861900
 S                  2.20726000   -0.45576200    0.19275100
 S                  9.80487900   -0.72958400    0.11609600
 S                 14.28192400    0.01337200    0.06946900
 S                 21.88165600   -0.27140500   -0.04818700
 C                 31.64322400    0.13364600   -0.20880600
 C                 30.95472200    1.42678300   -0.18137200
 C                 29.44679300    1.48198800   -0.15369900
 C                 28.66444300    0.24170100   -0.15548200
 C                 29.40126200   -0.94223400   -0.18293800
 C                 30.82278600   -0.99270200   -0.20819500
 C                 33.09927400    0.02626100   -0.23412600
 N                 31.61888300    2.59291200   -0.17875100
 N                 28.87031100    2.69246200   -0.12784000
 H                 28.87391900   -1.89269700   -0.18558700
 H                 31.28083000   -1.97827200   -0.22788400
 C                 34.07068300    1.01728900   -0.23888600
 C                 35.42271700    0.52999000   -0.26517300
 C                 35.51773400   -0.84337700   -0.28125700
 C                 24.70914400   -0.44960300   -0.09552800
 C                 24.93619200    0.92222200   -0.08543800
 C                 26.31001800    1.30139300   -0.10458200
 C                 27.20977600    0.24058900   -0.13054900
 H                 36.28839400    1.18345800   -0.27159200
 H                 33.79916300    2.06380000   -0.22325600
 H                 26.66001600    2.32422000   -0.09979900
 H                 24.12750800    1.64544900   -0.06436300
 S                 26.29098200   -1.34398300   -0.13159000
 S                 33.90387600   -1.62090000   -0.26412600
 Te               -30.22941300   -4.27446500   -0.17804100
 Te               -17.94212600    5.76030100   -0.03641400
 Te                -6.18346000   -4.88531600    0.24990000
 Te                 6.20727900    5.01656300    0.18383900
 Te                17.87205300   -5.73653400   -0.04060900
 Te                30.29817400    4.12292500   -0.13755200

 1 2 1.0 6 1.5 7 1.0
 2 3 1.0 8 1.5
 3 4 1.0 9 1.5
 4 5 1.5 18 1.0
 5 6 1.5 10 1.0
 6 11 1.0
 7 12 1.5 116 1.0
 8 148 1.0
 9 148 1.0
 10
 11
 12 13 1.5 20 1.0
 13 14 1.5 19 1.0
 14 37 1.5 116 1.0
 15 16 1.5 103 1.5 115 1.0
 16 17 1.5 22 1.0
 17 18 1.5 21 1.0
 18 115 1.0
 19
 20
 21
 22
 23 24 1.0 28 1.5 29 1.0
 24 25 1.0 30 1.5
 25 26 1.0 31 1.5
 26 27 1.5 40 1.0
 27 28 1.5 32 1.0
 28 33 1.0
 29 34 1.5 118 1.0
 30 149 1.0
 31 149 1.0
 32
 33
 34 35 1.5 42 1.0
 35 36 1.5 41 1.0
 36 59 1.5 118 1.0
 37 38 1.5 117 1.0
 38 39 1.5 44 1.0
 39 40 1.5 43 1.0
 40 117 1.0
 41
 42
 43
 44
 45 46 1.0 50 1.5 51 1.0
 46 47 1.0 52 1.5
 47 48 1.0 53 1.5
 48 49 1.5 62 1.0
 49 50 1.5 54 1.0
 50 55 1.0
 51 56 1.5 120 1.0
 52 150 1.0
 53 150 1.0
 54
 55
 56 57 1.5 64 1.0
 57 58 1.5 63 1.0
 58 81 1.5 120 1.0
 59 60 1.5 119 1.0
 60 61 1.5 66 1.0
 61 62 1.5 65 1.0
 62 119 1.0
 63
 64
 65
 66
 67 68 1.0 72 1.5 73 1.0
 68 69 1.0 74 1.5
 69 70 1.0 75 1.5
 70 71 1.5 84 1.0
 71 72 1.5 76 1.0
 72 77 1.0
 73 78 1.5 122 1.0
 74 151 1.0
 75 151 1.0
 76
 77
 78 79 1.5 87 1.0
 79 80 1.5 86 1.0
 80 122 1.0 137 1.5
 81 82 1.5 121 1.0
 82 83 1.5 89 1.0
 83 84 1.5 88 1.0
 84 121 1.0
 85 136 1.0
 86
 87
 88
 89
 90 91 1.0 95 1.5 96 1.0
 91 92 1.0 97 1.5
 92 93 1.0 98 1.5
 93 94 1.5 107 1.0
 94 95 1.5 99 1.0
 95 100 1.0
 96 101 1.5 114 1.0
 97 147 1.0
 98 147 1.0
 99
 100
 101 102 1.5 109 1.0
 102 103 1.5 108 1.0
 103 114 1.0
 104 105 2.0 112 1.0 113 1.0
 105 106 1.5 111 1.0
 106 107 1.5 110 1.0
 107 113 1.0
 108
 109
 110
 111
 112
 113
 114
 115
 116
 117
 118
 119
 120
 121
 122
 123 124 1.0 128 1.5 129 1.0
 124 125 1.0 130 1.5
 125 126 1.0 131 1.5
 126 127 1.5 140 1.0
 127 128 1.5 132 1.0
 128 133 1.0
 129 134 1.5 146 1.0
 130 152 1.0
 131 152 1.0
 132
 133
 134 135 1.5 142 1.0
 135 136 2.0 141 1.0
 136 146 1.0
 137 138 1.5 145 1.0
 138 139 1.5 144 1.0
 139 140 1.5 143 1.0
 140 145 1.0
 141
 142
 143
 144
 145
 146
 147
 148
 149
 150
 151
 152

