%mem=500MW
%chk=A-TeSeTe6uv.chk
# td=(nstates=10) b3lyp/lanl2dz geom=connectivity

A-TeSeTe6uv

0 1
 C                 17.67696300    0.37091800   -0.23710700
 C                 18.40853800   -0.86776900   -0.04205500
 C                 19.88441600   -0.88279900    0.03610300
 C                 20.65783900    0.33964400   -0.08322900
 C                 19.89539700    1.50629500   -0.27402300
 C                 18.47923300    1.52123000   -0.34665800
 C                 16.23036400    0.37332500   -0.30431100
 N                 17.79693300   -2.05799400    0.07956600
 N                 20.45506700   -2.08521000    0.22175600
 H                 20.40783900    2.45881500   -0.37172900
 H                 17.99962600    2.48415200   -0.49550600
 C                 15.41917900    1.50061100   -0.47362500
 C                 14.00947300    1.33596600   -0.51615600
 C                 13.47442800    0.04761600   -0.39155600
 C                 24.84613100   -0.07073400    0.20382900
 C                 24.35632800    1.22318800   -0.00883800
 C                 22.95303600    1.41769000   -0.11398500
 C                 22.10404300    0.31172000   -0.00437000
 H                 13.36511700    2.20402500   -0.65381200
 H                 15.84916200    2.49467200   -0.57292500
 H                 22.55804000    2.41773900   -0.27736500
 H                 25.03023900    2.07559300   -0.09180100
 C                  4.89057000   -0.58270300   -0.49127500
 C                  5.65758800    0.64963800   -0.50395200
 C                  7.13553500    0.63353700   -0.49052900
 C                  7.87494400   -0.61518800   -0.46192800
 C                  7.07855700   -1.77520600   -0.45415600
 C                  5.66117800   -1.75987300   -0.46834200
 C                  3.44307500   -0.55399400   -0.49870900
 N                  5.07865200    1.86201400   -0.52737500
 N                  7.74119300    1.83297700   -0.50440900
 H                  7.56480300   -2.74605400   -0.43515800
 H                  5.15381600   -2.72001900   -0.45828400
 C                  2.60140500   -1.67189300   -0.49372400
 C                  1.19540000   -1.47665000   -0.49286400
 C                  0.69310400   -0.16897100   -0.49492700
 C                 12.08007600   -0.29372300   -0.40888800
 C                 11.54897900   -1.58942800   -0.37804400
 C                 10.13895500   -1.75383200   -0.39638800
 C                  9.32267800   -0.61826500   -0.44006200
 H                  0.52771800   -2.33800700   -0.48393700
 H                  3.00563100   -2.68149500   -0.48847200
 H                  9.71249100   -2.75414200   -0.37642900
 H                 12.19745100   -2.46488300   -0.35017600
 C                 -7.87523000    0.64379300   -0.43428400
 C                 -7.13474300   -0.60317900   -0.49471100
 C                 -5.65684900   -0.61773300   -0.50749100
 C                 -4.89078600    0.61441700   -0.46139900
 C                 -5.66231800    1.78993800   -0.40623200
 C                 -7.07975100    1.80377400   -0.39320200
 C                 -9.32300900    0.64488900   -0.41701500
 N                 -7.73937000   -1.80241000   -0.54033700
 N                 -5.07698400   -1.82863600   -0.56292300
 H                 -5.15571300    2.74984300   -0.36935400
 H                 -7.56678900    2.77337000   -0.34807000
 C                -10.14093300    1.77809300   -0.34882500
 C                -11.55081400    1.61162200   -0.34054800
 C                -12.08008600    0.31636800   -0.40508200
 C                 -0.69327200    0.20267400   -0.48715900
 C                 -1.19581100    1.50956200   -0.44435700
 C                 -2.60192400    1.70429300   -0.43537200
 C                 -3.44327500    0.58672600   -0.47106600
 H                -12.20041600    2.48537700   -0.29286500
 H                 -9.71573600    2.77807300   -0.30246900
 H                 -3.00639300    2.71332700   -0.39918900
 H                 -0.52828800    2.37032900   -0.41156200
 C                -20.65798400   -0.33796700   -0.13027200
 C                -19.88778700    0.88507000    0.00319200
 C                -18.41166700    0.87402300   -0.07072300
 C                -17.67660500   -0.36098900   -0.27548700
 C                -18.47595500   -1.51194000   -0.39934400
 C                -19.89235800   -1.50084000   -0.33078400
 C                -22.10434400   -0.31427100   -0.05312000
 N                -20.46167000    2.08422500    0.19976300
 N                -17.80311700    2.06428500    0.06490900
 H                -17.99371900   -2.47228600   -0.55593700
 H                -20.40230900   -2.45358300   -0.43914000
 C                -22.95066400   -1.42127200   -0.17239100
 C                -24.35447000   -1.23113700   -0.06545700
 C                -24.84740700    0.05983800    0.15759500
 C                -13.47393800   -0.02735200   -0.40167100
 C                -14.00567700   -1.31501800   -0.54614500
 C                -15.41522200   -1.48301100   -0.51437200
 C                -16.22974700   -0.35952100   -0.33614400
 H                -38.62726900    0.26124900    0.98093500
 H                -25.02633400   -2.08430600   -0.15704100
 H                -22.55334400   -2.41893300   -0.34440500
 H                -15.84250600   -2.47667700   -0.62795100
 H                -13.35863700   -2.18023000   -0.68917900
 C                 30.41915200   -0.85000500    0.61833700
 C                 31.19573500    0.36735600    0.45655700
 C                 32.67267700    0.35386600    0.53256100
 C                 33.40135700   -0.87768400    0.77135300
 C                 32.59959200   -2.01777400    0.92027400
 C                 31.17867200   -2.00678500    0.84776300
 C                 28.97071500   -0.82146200    0.53939800
 N                 30.62501500    1.56169800    0.23078900
 N                 33.28278400    1.54111600    0.36764500
 H                 33.07789300   -2.97580700    1.10172900
 H                 30.66790500   -2.95628800    0.97902900
 C                 28.12186400   -1.92323000    0.67580900
 C                 26.71756100   -1.73002100    0.57162200
 C                 26.22841800   -0.44025700    0.33581200
 C                 37.57684000   -0.56976100    0.91199200
 C                 37.08185200   -1.84516800    1.10419400
 C                 35.65364900   -2.00968500    1.06740900
 C                 34.85791000   -0.89046000    0.84318700
 H                 26.04321700   -2.57946600    0.67838300
 H                 28.51637800   -2.91998600    0.85971700
 H                 35.21955100   -2.99682300    1.21344900
 H                 37.73459800   -2.69821800    1.27702500
 H                 38.63066100   -0.31223600    0.91600200
 C                -33.40121300    0.84136200    0.78348200
 C                -32.67035200   -0.39029300    0.55201500
 C                -31.19390500   -0.39950400    0.46414600
 C                -30.42034100    0.82215600    0.60626600
 C                -31.18196500    1.97878400    0.82974800
 C                -32.60224700    1.98561900    0.91388500
 C                -34.85718300    0.85028100    0.86750600
 N                -33.27762900   -1.58133400    0.40504200
 N                -30.62072000   -1.59442400    0.24793800
 H                -30.67352000    2.93129700    0.94693200
 H                -33.08226500    2.94389300    1.08943200
 C                -35.65448400    1.96973300    1.08572100
 C                -37.08171600    1.80114500    1.13760400
 C                -37.57437800    0.52199600    0.96443700
 C                -26.23034200    0.42514200    0.29493100
 C                -26.72276000    1.71544200    0.52079000
 C                -28.12691800    1.90440000    0.63373000
 C                -28.97252200    0.79799400    0.51621800
 H                -37.73561500    2.65426600    1.30635800
 H                -35.22233300    2.95989800    1.21609500
 H                -28.52384600    2.90169200    0.80921900
 H                -26.05116800    2.56897400    0.61110800
 Te                36.06617000    0.82472000    0.60997200
 Te                27.85006900    0.92579700    0.19553600
 Te                23.22617700   -1.44231200    0.30223900
 Te                15.04793400   -1.36076200   -0.15087400
 Te                10.49945700    1.12618000   -0.46639300
 Te                 2.30554200    1.21631800   -0.50947400
 Te                -2.30532300   -1.18220300   -0.53649900
 Te               -10.49735000   -1.09984900   -0.49164300
 Te               -15.05182500    1.37506500   -0.15516100
 Te               -23.23070100    1.43442800    0.26751100
 Te               -27.84770000   -0.94874000    0.18361800
 Te               -36.06190900   -0.87119000    0.66552700
 Se               -31.96847500   -2.89220300    0.12817600
 Se               -19.11353000    3.38336000    0.31236800
 Se                -6.42159500   -3.13591100   -0.60945900
 Se                 6.42449900    3.16893500   -0.53583000
 Se                19.10399700   -3.38230700    0.31757900
 Se                31.97604800    2.85326700    0.08579800

 1 2 1.0 6 1.5 7 1.0
 2 3 1.0 8 1.5
 3 4 1.0 9 1.5
 4 5 1.5 18 1.0
 5 6 1.5 10 1.0
 6 11 1.0
 7 12 1.5 138 1.0
 8 151 1.0
 9 151 1.0
 10
 11
 12 13 1.5 20 1.0
 13 14 1.5 19 1.0
 14 37 1.5 138 1.0
 15 16 1.5 103 1.5 137 1.0
 16 17 1.5 22 1.0
 17 18 1.5 21 1.0
 18 137 1.0
 19
 20
 21
 22
 23 24 1.0 28 1.5 29 1.0
 24 25 1.0 30 1.5
 25 26 1.0 31 1.5
 26 27 1.5 40 1.0
 27 28 1.5 32 1.0
 28 33 1.0
 29 34 1.5 140 1.0
 30 150 1.0
 31 150 1.0
 32
 33
 34 35 1.5 42 1.0
 35 36 1.5 41 1.0
 36 59 1.5 140 1.0
 37 38 1.5 139 1.0
 38 39 1.5 44 1.0
 39 40 1.5 43 1.0
 40 139 1.0
 41
 42
 43
 44
 45 46 1.0 50 1.5 51 1.0
 46 47 1.0 52 1.5
 47 48 1.0 53 1.5
 48 49 1.5 62 1.0
 49 50 1.5 54 1.0
 50 55 1.0
 51 56 1.5 142 1.0
 52 149 1.0
 53 149 1.0
 54
 55
 56 57 1.5 64 1.0
 57 58 1.5 63 1.0
 58 81 1.5 142 1.0
 59 60 1.5 141 1.0
 60 61 1.5 66 1.0
 61 62 1.5 65 1.0
 62 141 1.0
 63
 64
 65
 66
 67 68 1.0 72 1.5 73 1.0
 68 69 1.0 74 1.5
 69 70 1.0 75 1.5
 70 71 1.5 84 1.0
 71 72 1.5 76 1.0
 72 77 1.0
 73 78 1.5 144 1.0
 74 148 1.0
 75 148 1.0
 76
 77
 78 79 1.5 87 1.0
 79 80 1.5 86 1.0
 80 127 1.5 144 1.0
 81 82 1.5 143 1.0
 82 83 1.5 89 1.0
 83 84 1.5 88 1.0
 84 143 1.0
 85 126 1.0
 86
 87
 88
 89
 90 91 1.0 95 1.5 96 1.0
 91 92 1.0 97 1.5
 92 93 1.0 98 1.5
 93 94 1.5 107 1.0
 94 95 1.5 99 1.0
 95 100 1.0
 96 101 1.5 136 1.0
 97 152 1.0
 98 152 1.0
 99
 100
 101 102 1.5 109 1.0
 102 103 1.5 108 1.0
 103 136 1.0
 104 105 2.0 112 1.0 135 1.0
 105 106 1.5 111 1.0
 106 107 1.5 110 1.0
 107 135 1.0
 108
 109
 110
 111
 112
 113 114 1.0 118 1.5 119 1.0
 114 115 1.0 120 1.5
 115 116 1.0 121 1.5
 116 117 1.5 130 1.0
 117 118 1.5 122 1.0
 118 123 1.0
 119 124 1.5 146 1.0
 120 147 1.0
 121 147 1.0
 122
 123
 124 125 1.5 132 1.0
 125 126 2.0 131 1.0
 126 146 1.0
 127 128 1.5 145 1.0
 128 129 1.5 134 1.0
 129 130 1.5 133 1.0
 130 145 1.0
 131
 132
 133
 134
 135
 136
 137
 138
 139
 140
 141
 142
 143
 144
 145
 146
 147
 148
 149
 150
 151
 152

