%chk=A-TeOTe6uv.chk
%mem=500MW
# td=(nstates=10) b3lyp/lanl2dz geom=connectivity

A-TeOTe6uv

0 1
 C                 -0.93879200  -17.67997400    0.16809900
 C                  0.23804400  -18.48091200   -0.06110400
 C                  0.20644900  -19.93136000   -0.06548300
 C                 -1.00414000  -20.68162700    0.15975700
 C                 -2.13166500  -19.86788800    0.38183400
 C                 -2.10069900  -18.44510800    0.38586800
 C                 -0.88785400  -16.23052600    0.16375900
 N                  1.49105900  -18.05807700   -0.29726700
 N                  1.43994000  -20.40684000   -0.30455000
 H                 -3.09281700  -20.33984700    0.56155300
 H                 -3.04028100  -17.93281100    0.56921400
 C                 -1.97631500  -15.37624300    0.36442500
 C                 -1.76611300  -13.97209200    0.33012500
 C                 -0.47454000  -13.48585400    0.09850700
 C                 -0.72608800  -24.89156500    0.05240400
 C                 -1.98999900  -24.35121000    0.31222300
 C                 -2.13774800  -22.93914200    0.36043100
 C                 -1.01637900  -22.13201300    0.14815700
 H                 -2.60304500  -13.29309800    0.49022100
 H                 -2.97442000  -15.76775300    0.54544600
 H                 -3.11485200  -22.50589000    0.55999500
 H                 -2.85473900  -24.99378100    0.47496500
 C                  0.44579300   -4.90999300   -0.14285900
 C                 -0.78080600   -5.65667000   -0.01338600
 C                 -0.81275400   -7.10704300    0.01070700
 C                  0.37948300   -7.91101900   -0.09486500
 C                  1.55708900   -7.14910400   -0.22138700
 C                  1.58846700   -5.72684000   -0.24437900
 C                  0.45912200   -3.45991200   -0.16147000
 N                 -2.03062100   -5.17774900    0.10147800
 N                 -2.08226300   -7.52644500    0.14096900
 H                  2.50908600   -7.66401000   -0.30756000
 H                  2.56197200   -5.25750900   -0.34877500
 C                  1.60077400   -2.65815800   -0.25495400
 C                  1.45249900   -1.24586700   -0.26746200
 C                  0.16649000   -0.69928900   -0.19142500
 C                 -0.08334200  -12.10428500    0.02935500
 C                  1.21913900  -11.61871700   -0.13284500
 C                  1.42880400  -10.21515500   -0.18147100
 C                  0.32825900   -9.36002000   -0.06940600
 H                  2.33131700   -0.60738900   -0.35182800
 H                  2.59370300   -3.09656000   -0.31936000
 H                  2.43606300   -9.82446800   -0.30414200
 H                  2.06724400  -12.29784900   -0.21436500
 C                 -0.37948300    7.91101900   -0.09486500
 C                  0.81275400    7.10704300    0.01070700
 C                  0.78080600    5.65667000   -0.01338600
 C                 -0.44579300    4.90999300   -0.14285900
 C                 -1.58846700    5.72684000   -0.24437900
 C                 -1.55708900    7.14910400   -0.22138700
 C                 -0.32825900    9.36002000   -0.06940600
 N                  2.08226300    7.52644500    0.14096900
 N                  2.03062100    5.17774900    0.10147800
 H                 -2.56197200    5.25750900   -0.34877500
 H                 -2.50908600    7.66401000   -0.30756000
 C                 -1.42880400   10.21515500   -0.18147100
 C                 -1.21913900   11.61871700   -0.13284500
 C                  0.08334200   12.10428500    0.02935500
 C                 -0.16649000    0.69928900   -0.19142500
 C                 -1.45249900    1.24586700   -0.26746200
 C                 -1.60077400    2.65815800   -0.25495400
 C                 -0.45912200    3.45991200   -0.16147000
 H                 -2.06724400   12.29784900   -0.21436500
 H                 -2.43606300    9.82446800   -0.30414200
 H                 -2.59370300    3.09656000   -0.31936000
 H                 -2.33131700    0.60738900   -0.35182800
 C                  1.00414000   20.68162700    0.15975700
 C                 -0.20644900   19.93136000   -0.06548300
 C                 -0.23804400   18.48091200   -0.06110400
 C                  0.93879200   17.67997400    0.16809900
 C                  2.10069900   18.44510800    0.38586800
 C                  2.13166500   19.86788800    0.38183400
 C                  1.01637900   22.13201300    0.14815700
 N                 -1.43994000   20.40684000   -0.30455000
 N                 -1.49105900   18.05807700   -0.29726700
 H                  3.04028100   17.93281100    0.56921400
 H                  3.09281700   20.33984700    0.56155300
 C                  2.13774800   22.93914200    0.36043100
 C                  1.98999900   24.35121000    0.31222300
 C                  0.72608800   24.89156500    0.05240400
 C                  0.47454000   13.48585400    0.09850700
 C                  1.76611300   13.97209200    0.33012500
 C                  1.97631500   15.37624300    0.36442500
 C                  0.88785400   16.23052600    0.16375900
 H                  0.92358100   38.71057400   -0.05230000
 H                  2.85473900   24.99378100    0.47496500
 H                  3.11485200   22.50589000    0.55999500
 H                  2.97442000   15.76775300    0.54544600
 H                  2.60304500   13.29309800    0.49022100
 C                 -0.11682700  -30.50083200   -0.14490200
 C                 -1.32232000  -31.25324500    0.10112700
 C                 -1.35469400  -32.70423200    0.09247000
 C                 -0.18192800  -33.50269000   -0.16313400
 C                  0.97154700  -32.73774700   -0.39865700
 C                  1.00414000  -31.31138300   -0.39033200
 C                 -0.10585100  -29.04824900   -0.13019800
 N                 -2.55002300  -30.77739500    0.36526600
 N                 -2.60486100  -33.12573400    0.35172000
 H                  1.90784700  -33.24868100   -0.60131400
 H                  1.96233600  -30.84020200   -0.58713200
 C                  1.01176000  -28.24136800   -0.35594100
 C                  0.86377100  -26.82869800   -0.30732000
 C                 -0.39735900  -26.28928700   -0.03457500
 C                 -0.62962400  -37.66835000   -0.10591900
 C                  0.65059300  -37.22217900   -0.37330300
 C                  0.86007300  -35.80147100   -0.40532100
 C                 -0.22395000  -34.96075500   -0.16833700
 H                  1.72576800  -26.18583000   -0.48298200
 H                  1.98674100  -28.67403900   -0.56701300
 H                  1.85200200  -35.40540100   -0.61165900
 H                  1.47253300  -37.91127300   -0.55325500
 H                 -0.92358100  -38.71057400   -0.05230000
 C                  0.18192800   33.50269000   -0.16313400
 C                  1.35469400   32.70423200    0.09247000
 C                  1.32232000   31.25324500    0.10112700
 C                  0.11682700   30.50083200   -0.14490200
 C                 -1.00414000   31.31138300   -0.39033200
 C                 -0.97154700   32.73774700   -0.39865700
 C                  0.22395000   34.96075500   -0.16833700
 N                  2.60486100   33.12573400    0.35172000
 N                  2.55002300   30.77739500    0.36526600
 H                 -1.96233600   30.84020200   -0.58713200
 H                 -1.90784700   33.24868100   -0.60131400
 C                 -0.86007300   35.80147100   -0.40532100
 C                 -0.65059300   37.22217900   -0.37330300
 C                  0.62962400   37.66835000   -0.10591900
 C                  0.39735900   26.28928700   -0.03457500
 C                 -0.86377100   26.82869800   -0.30732000
 C                 -1.01176000   28.24136800   -0.35594100
 C                  0.10585100   29.04824900   -0.13019800
 H                 -1.47253300   37.91127300   -0.55325500
 H                 -1.85200200   35.40540100   -0.61165900
 H                 -1.98674100   28.67403900   -0.56701300
 H                 -1.72576800   26.18583000   -0.48298200
 Te                -1.96111100  -36.11064300    0.18921700
 Te                -1.79833400  -27.84906000    0.24107800
 Te                 0.68015400  -23.33309100   -0.20190000
 Te                 0.86453500  -15.10308100   -0.15370900
 Te                -1.43994000  -10.48621800    0.14969000
 Te                -1.26375800   -2.25064400   -0.05231500
 Te                 1.26375800    2.25064400   -0.05231500
 Te                 1.43994000   10.48621800    0.14969000
 Te                -0.86453500   15.10308100   -0.15370900
 Te                -0.68015400   23.33309100   -0.20190000
 Te                 1.79833400   27.84906000    0.24107800
 Te                 1.96111100   36.11064300    0.18921700
 O                  3.36901800   31.93386400    0.52564700
 O                 -2.26171500   19.24935200   -0.45284000
 O                  2.86318600    6.33306000    0.19932300
 O                 -2.86318600   -6.33306000    0.19932300
 O                  2.26171500  -19.24935200   -0.45284000
 O                 -3.36901800  -31.93386400    0.52564700

 1 2 1.5 6 1.5 7 1.0
 2 3 1.0 8 1.5
 3 4 1.5 9 1.5
 4 5 1.5 18 1.0
 5 6 1.5 10 1.0
 6 11 1.0
 7 12 1.5 138 1.0
 8 151 1.0
 9 151 1.0
 10
 11
 12 13 1.5 20 1.0
 13 14 1.5 19 1.0
 14 37 1.5 138 1.0
 15 16 1.5 103 1.5 137 1.0
 16 17 1.5 22 1.0
 17 18 1.5 21 1.0
 18 137 1.0
 19
 20
 21
 22
 23 24 1.5 28 1.5 29 1.0
 24 25 1.0 30 1.5
 25 26 1.5 31 1.5
 26 27 1.5 40 1.0
 27 28 1.5 32 1.0
 28 33 1.0
 29 34 1.5 140 1.0
 30 150 1.0
 31 150 1.0
 32
 33
 34 35 1.5 42 1.0
 35 36 1.5 41 1.0
 36 59 1.5 140 1.0
 37 38 1.5 139 1.0
 38 39 1.5 44 1.0
 39 40 1.5 43 1.0
 40 139 1.0
 41
 42
 43
 44
 45 46 1.5 50 1.5 51 1.0
 46 47 1.0 52 1.5
 47 48 1.5 53 1.5
 48 49 1.5 62 1.0
 49 50 1.5 54 1.0
 50 55 1.0
 51 56 1.5 142 1.0
 52 149 1.0
 53 149 1.0
 54
 55
 56 57 1.5 64 1.0
 57 58 1.5 63 1.0
 58 81 1.5 142 1.0
 59 60 1.5 141 1.0
 60 61 1.5 66 1.0
 61 62 1.5 65 1.0
 62 141 1.0
 63
 64
 65
 66
 67 68 1.5 72 1.5 73 1.0
 68 69 1.0 74 1.5
 69 70 1.5 75 1.5
 70 71 1.5 84 1.0
 71 72 1.5 76 1.0
 72 77 1.0
 73 78 1.5 144 1.0
 74 148 1.0
 75 148 1.0
 76
 77
 78 79 1.5 87 1.0
 79 80 1.5 86 1.0
 80 127 1.5 144 1.0
 81 82 1.5 143 1.0
 82 83 1.5 89 1.0
 83 84 1.5 88 1.0
 84 143 1.0
 85 126 1.0
 86
 87
 88
 89
 90 91 1.5 95 1.5 96 1.0
 91 92 1.0 97 1.5
 92 93 1.5 98 1.5
 93 94 1.5 107 1.0
 94 95 1.5 99 1.0
 95 100 1.0
 96 101 1.5 136 1.0
 97 152 1.0
 98 152 1.0
 99
 100
 101 102 1.5 109 1.0
 102 103 1.5 108 1.0
 103 136 1.0
 104 105 2.0 112 1.0 135 1.0
 105 106 1.5 111 1.0
 106 107 1.5 110 1.0
 107 135 1.0
 108
 109
 110
 111
 112
 113 114 1.5 118 1.5 119 1.0
 114 115 1.0 120 1.5
 115 116 1.5 121 1.5
 116 117 1.5 130 1.0
 117 118 1.5 122 1.0
 118 123 1.0
 119 124 1.5 146 1.0
 120 147 1.0
 121 147 1.0
 122
 123
 124 125 1.5 132 1.0
 125 126 2.0 131 1.0
 126 146 1.0
 127 128 1.5 145 1.0
 128 129 1.5 134 1.0
 129 130 1.5 133 1.0
 130 145 1.0
 131
 132
 133
 134
 135
 136
 137
 138
 139
 140
 141
 142
 143
 144
 145
 146
 147
 148
 149
 150
 151
 152

