%chk=A-TeTeTe6uv.chk
%mem=500MW
# td=(nstates=10) b3lyp/lanl2dz 

A-TeTeTe6uv

0 1
 C                 17.65770800   -0.33424600    0.15737900
 C                 18.38850600    0.90394100   -0.07427800
 C                 19.87553800    0.92056300   -0.08423600
 C                 20.63655200   -0.30011300    0.13991900
 C                 19.86996300   -1.45804200    0.36060500
 C                 18.45309300   -1.47456100    0.36861900
 C                 16.21113900   -0.33798200    0.15719400
 N                 17.74745900    2.06399400   -0.28734800
 N                 20.48732200    2.09479600   -0.30696000
 H                 20.38033900   -2.40095700    0.53431000
 H                 17.96663500   -2.42887000    0.54847100
 C                 15.38886800   -1.45329500    0.35399500
 C                 13.97959600   -1.28528400    0.32120900
 C                 13.45550000   -0.00536900    0.09612200
 C                 24.82957100    0.12095900    0.01497400
 C                 24.33817500   -1.16445800    0.27383900
 C                 22.93280200   -1.36406800    0.32842300
 C                 22.08347100   -0.27147800    0.12418300
 H                 13.32627700   -2.14325500    0.47901000
 H                 15.81084500   -2.44003000    0.53108900
 H                 22.53610100   -2.35731300    0.52620600
 H                 25.01241300   -2.00652300    0.42976200
 C                  4.88433900    0.62275500   -0.13571700
 C                  5.64398500   -0.61416800   -0.02175200
 C                  7.13084100   -0.59551600    0.00411300
 C                  7.86238300    0.65989800   -0.08880900
 C                  7.06836300    1.81572000   -0.19964600
 C                  5.65227100    1.79821000   -0.22130000
 C                  3.43846900    0.59161200   -0.15424700
 N                  5.03058800   -1.80523100    0.06461400
 N                  7.77070800   -1.77067000    0.11455300
 H                  7.55633300    2.78333700   -0.27255400
 H                  5.14299200    2.75341400   -0.31055600
 C                  2.59095800    1.70223900   -0.24040400
 C                  1.18624000    1.49848900   -0.24978600
 C                  0.69174000    0.18910500   -0.17922500
 C                 12.06363000    0.33499000    0.03203800
 C                 11.53941500    1.62656200   -0.11209400
 C                 10.13063400    1.79397800   -0.15856100
 C                  9.30852000    0.66514400   -0.06418100
 H                  0.51360300    2.35251500   -0.32776800
 H                  2.99039300    2.71203800   -0.30208300
 H                  9.70868000    2.79079000   -0.26534100
 H                 12.19213800    2.49684000   -0.17913000
 C                 -7.86238300   -0.65989800   -0.08880800
 C                 -7.13084100    0.59551600    0.00411300
 C                 -5.64398500    0.61416700   -0.02175100
 C                 -4.88433900   -0.62275600   -0.13571700
 C                 -5.65227100   -1.79821100   -0.22130000
 C                 -7.06836300   -1.81572100   -0.19964500
 C                 -9.30852000   -0.66514500   -0.06418000
 N                 -7.77070800    1.77066900    0.11455400
 N                 -5.03058800    1.80523000    0.06461500
 H                 -5.14299300   -2.75341500   -0.31055500
 H                 -7.55633300   -2.78333800   -0.27255400
 C                -10.13063400   -1.79397800   -0.15856000
 C                -11.53941500   -1.62656200   -0.11209300
 C                -12.06363000   -0.33499100    0.03203900
 C                 -0.69174000   -0.18910600   -0.17922500
 C                 -1.18624000   -1.49849000   -0.24978500
 C                 -2.59095800   -1.70223900   -0.24040400
 C                 -3.43846900   -0.59161300   -0.15424600
 H                -12.19213800   -2.49684100   -0.17912900
 H                 -9.70868100   -2.79079100   -0.26534000
 H                 -2.99039300   -2.71203900   -0.30208200
 H                 -0.51360300   -2.35251600   -0.32776800
 C                -20.63655200    0.30011300    0.13991900
 C                -19.87553800   -0.92056300   -0.08423600
 C                -18.38850600   -0.90394100   -0.07427700
 C                -17.65770800    0.33424500    0.15738000
 C                -18.45309300    1.47456100    0.36862000
 C                -19.86996300    1.45804200    0.36060600
 C                -22.08347100    0.27147800    0.12418400
 N                -20.48732200   -2.09479600   -0.30695900
 N                -17.74745900   -2.06399400   -0.28734800
 H                -17.96663500    2.42886900    0.54847200
 H                -20.38033900    2.40095700    0.53431100
 C                -22.93280200    1.36406800    0.32842300
 C                -24.33817500    1.16445800    0.27384000
 C                -24.82957100   -0.12095800    0.01497400
 C                -13.45550000    0.00536900    0.09612300
 C                -13.97959600    1.28528400    0.32121000
 C                -15.38886800    1.45329500    0.35399700
 C                -16.21113900    0.33798200    0.15719500
 H                -38.61947200   -0.38937800   -0.08760300
 H                -25.01241300    2.00652300    0.42976200
 H                -22.53610100    2.35731300    0.52620600
 H                -15.81084500    2.44002900    0.53109000
 H                -13.32627700    2.14325500    0.47901100
 C                 30.40920200    0.91478900   -0.19535600
 C                 31.17345200   -0.29914700    0.06496400
 C                 32.66181100   -0.28243600    0.05657500
 C                 33.38980300    0.94825800   -0.21247800
 C                 32.59557500    2.07589000   -0.45571500
 C                 31.17338200    2.06238900   -0.44803700
 C                 28.96003300    0.88389600   -0.18021200
 N                 30.56116800   -1.46478600    0.32047700
 N                 33.30080500   -1.43778000    0.30596400
 H                 33.08092000    3.02522500   -0.66298300
 H                 30.66583900    3.00121100   -0.64968100
 C                 28.11159600    1.97055700   -0.41034900
 C                 26.70536000    1.77173900   -0.35721000
 C                 26.21390300    0.49141300   -0.07589200
 C                 37.56620200    0.64381500   -0.14471200
 C                 37.08280300    1.90746000   -0.42294800
 C                 35.65389300    2.07261500   -0.46038700
 C                 34.84748900    0.96547600   -0.21777600
 H                 26.03147600    2.60923500   -0.53699600
 H                 28.50841900    2.95960600   -0.62828700
 H                 35.22850400    3.05086100   -0.67518400
 H                 37.74315400    2.75227700   -0.60794700
 H                 38.61947200    0.38938000   -0.08760100
 C                -33.38980300   -0.94825700   -0.21247900
 C                -32.66181000    0.28243700    0.05657500
 C                -31.17345200    0.29914800    0.06496400
 C                -30.40920200   -0.91478800   -0.19535600
 C                -31.17338200   -2.06238800   -0.44803700
 C                -32.59557500   -2.07588900   -0.45571600
 C                -34.84748900   -0.96547500   -0.21777800
 N                -33.30080500    1.43778100    0.30596300
 N                -30.56116800    1.46478700    0.32047700
 H                -30.66583900   -3.00121000   -0.64968100
 H                -33.08092000   -3.02522400   -0.66298400
 C                -35.65389300   -2.07261400   -0.46038800
 C                -37.08280300   -1.90745900   -0.42294900
 C                -37.56620200   -0.64381300   -0.14471400
 C                -26.21390300   -0.49141200   -0.07589200
 C                -26.70536000   -1.77173800   -0.35721000
 C                -28.11159600   -1.97055600   -0.41034900
 C                -28.96003300   -0.88389500   -0.18021300
 H                -37.74315400   -2.75227600   -0.60795000
 H                -35.22850400   -3.05085900   -0.67518600
 H                -28.50841900   -2.95960500   -0.62828700
 H                -26.03147700   -2.60923500   -0.53699600
 Te                36.03705000   -0.73608900    0.15632600
 Te                31.94843000   -2.90699100    0.63045400
 Te                27.84102800   -0.85406400    0.20487600
 Te                23.20268700    1.47458800   -0.22594800
 Te                19.09927900    3.54607700   -0.57119300
 Te                15.04883900    1.38719200   -0.15321900
 Te                10.47060900   -1.07708400    0.12901200
 Te                 6.41687300   -3.27508400    0.21303900
 Te                 2.31604300   -1.18394900   -0.05171100
 Te                -2.31604300    1.18394800   -0.05171100
 Te                -6.41687300    3.27508300    0.21303900
 Te               -10.47060900    1.07708400    0.12901300
 Te               -15.04883900   -1.38719200   -0.15321800
 Te               -19.09927900   -3.54607700   -0.57119300
 Te               -23.20268700   -1.47458800   -0.22594700
 Te               -27.84102800    0.85406500    0.20487600
 Te               -31.94843000    2.90699200    0.63045300
 Te               -36.03705000    0.73609000    0.15632500

 1 2 1.0 6 1.5 7 1.5
 2 3 1.0 8 1.5
 3 4 1.0 9 1.5
 4 5 1.5 18 1.5
 5 6 1.5 10 1.0
 6 11 1.0
 7 12 1.5 140 1.0
 8 139 1.0
 9 139 1.0
 10
 11
 12 13 1.5 20 1.0
 13 14 1.5 19 1.0
 14 37 1.5 140 1.0
 15 16 1.5 103 1.5 138 1.0
 16 17 1.5 22 1.0
 17 18 1.5 21 1.0
 18 138 1.0
 19
 20
 21
 22
 23 24 1.0 28 1.5 29 1.5
 24 25 1.0 30 1.5
 25 26 1.0 31 1.5
 26 27 1.5 40 1.5
 27 28 1.5 32 1.0
 28 33 1.0
 29 34 1.5 143 1.0
 30 142 1.0
 31 142 1.0
 32
 33
 34 35 1.5 42 1.0
 35 36 1.5 41 1.0
 36 59 1.5 143 1.0
 37 38 1.5 141 1.0
 38 39 1.5 44 1.0
 39 40 1.5 43 1.0
 40 141 1.0
 41
 42
 43
 44
 45 46 1.0 50 1.5 51 1.5
 46 47 1.0 52 1.5
 47 48 1.0 53 1.5
 48 49 1.5 62 1.5
 49 50 1.5 54 1.0
 50 55 1.0
 51 56 1.5 146 1.0
 52 145 1.0
 53 145 1.0
 54
 55
 56 57 1.5 64 1.0
 57 58 1.5 63 1.0
 58 81 1.5 146 1.0
 59 60 1.5 144 1.0
 60 61 1.5 66 1.0
 61 62 1.5 65 1.0
 62 144 1.0
 63
 64
 65
 66
 67 68 1.0 72 1.5 73 1.5
 68 69 1.0 74 1.5
 69 70 1.0 75 1.5
 70 71 1.5 84 1.5
 71 72 1.5 76 1.0
 72 77 1.0
 73 78 1.5 149 1.0
 74 148 1.0
 75 148 1.0
 76
 77
 78 79 1.5 87 1.0
 79 80 1.5 86 1.0
 80 127 1.5 149 1.0
 81 82 1.5 147 1.0
 82 83 1.5 89 1.0
 83 84 1.5 88 1.0
 84 147 1.0
 85 126 1.0
 86
 87
 88
 89
 90 91 1.0 95 1.5 96 1.0
 91 92 1.0 97 1.5
 92 93 1.0 98 1.5
 93 94 1.5 107 1.0
 94 95 1.5 99 1.0
 95 100 1.0
 96 101 1.5 137 1.0
 97 136 1.0
 98 136 1.0
 99
 100
 101 102 1.5 109 1.0
 102 103 1.5 108 1.0
 103 137 1.0
 104 105 2.0 112 1.0 135 1.0
 105 106 1.5 111 1.0
 106 107 1.5 110 1.0
 107 135 1.0
 108
 109
 110
 111
 112
 113 114 1.0 118 1.5 119 1.0
 114 115 1.0 120 1.5
 115 116 1.0 121 1.5
 116 117 1.5 130 1.0
 117 118 1.5 122 1.0
 118 123 1.0
 119 124 1.5 152 1.0
 120 151 1.0
 121 151 1.0
 122
 123
 124 125 1.5 132 1.0
 125 126 2.0 131 1.0
 126 152 1.0
 127 128 1.5 150 1.0
 128 129 1.5 134 1.0
 129 130 1.5 133 1.0
 130 150 1.0
 131
 132
 133
 134
 135
 136
 137
 138
 139
 140
 141
 142
 143
 144
 145
 146
 147
 148
 149
 150
 151
 152

